
 PRINT S    PRINCIPAL DIRECTIONS PER NODE

          ***** POST1 NODAL STRESS PRINCIPAL DIRECTIONS *****

  LOAD STEP     1  SUBSTEP=     1
  TIME=    1.0000         LOAD CASE=  0

  NODE      PRINCIPAL STRESS     DIRECTION VECTOR (X,Y,Z)
             (S1,S2,S3)
       1     -0.46314E+06        0.32585  0.94020 -0.09927
             -0.16440E+07       -0.00000  0.10500  0.99447
             -0.11585E+08        0.94542 -0.32404  0.03421
       2     -0.46314E+06       -0.32585  0.94020  0.09927
             -0.16440E+07        0.00000 -0.10500  0.99447
             -0.11585E+08        0.94542  0.32404  0.03421
       3     -0.14455E+07        0.32799  0.93234 -0.15223
             -0.22239E+07        0.00000  0.16114  0.98693
             -0.86818E+07        0.94468 -0.32370  0.05285
       4     -0.12989E+07        0.30400  0.94001 -0.15481
             -0.18895E+07        0.00000  0.16250  0.98671
             -0.76901E+07        0.95267 -0.29996  0.04940
       5     -0.13980E+07        0.28518  0.94133 -0.18045
             -0.18782E+07        0.00000  0.18827  0.98212
             -0.73023E+07        0.95847 -0.28008  0.05369
       6     -0.14595E+07        0.25867  0.94435 -0.20321
             -0.18382E+07        0.00000  0.21037  0.97762
             -0.71198E+07        0.96597 -0.25288  0.05442
       7     -0.15563E+07        0.22868  0.94382 -0.23854
             -0.18438E+07        0.00000  0.24504  0.96951
             -0.70538E+07        0.97350 -0.22171  0.05603
       8     -0.16497E+07        0.19371  0.93734 -0.28960
             -0.18520E+07        0.00000  0.29520  0.95544
             -0.70403E+07        0.98106 -0.18508  0.05718
       9     -0.17386E+07        0.15515  0.91556 -0.37106
             -0.18665E+07        0.00000  0.37561  0.92678
             -0.70520E+07        0.98789 -0.14379  0.05827
      10     -0.18101E+07        0.11477  0.85152 -0.51161
             -0.18794E+07        0.00000  0.51501  0.85718
             -0.70703E+07        0.99339 -0.09838  0.05911
      11     -0.18568E+07       -0.07782 -0.64034  0.76414
             -0.18885E+07        0.00000  0.76647  0.64228
             -0.70850E+07        0.99697 -0.04998  0.05965
      12     -0.18730E+07       -0.05983  0.00000  0.99821
             -0.18917E+07       -0.00000  1.00000 -0.00000
             -0.70905E+07        0.99821  0.00000  0.05983
      13     -0.18568E+07       -0.07782  0.64034  0.76414
             -0.18885E+07       -0.00000  0.76647 -0.64228
             -0.70850E+07        0.99697  0.04998  0.05965
      14     -0.18101E+07       -0.11477  0.85152  0.51161
             -0.18794E+07        0.00000 -0.51501  0.85718
             -0.70703E+07        0.99339  0.09838  0.05911
      15     -0.17386E+07       -0.15515  0.91556  0.37106
             -0.18665E+07        0.00000 -0.37561  0.92678
             -0.70520E+07        0.98789  0.14379  0.05827
      16     -0.16497E+07       -0.19371  0.93734  0.28960
             -0.18520E+07        0.00000 -0.29520  0.95544
             -0.70403E+07        0.98106  0.18508  0.05718
      17     -0.15563E+07       -0.22868  0.94382  0.23854
             -0.18438E+07        0.00000 -0.24504  0.96951
             -0.70538E+07        0.97350  0.22171  0.05603

          ***** POST1 NODAL STRESS PRINCIPAL DIRECTIONS *****

  LOAD STEP     1  SUBSTEP=     1
  TIME=    1.0000         LOAD CASE=  0

  NODE      PRINCIPAL STRESS     DIRECTION VECTOR (X,Y,Z)
             (S1,S2,S3)
      18     -0.14595E+07       -0.25867  0.94435  0.20321
             -0.18382E+07        0.00000 -0.21037  0.97762
             -0.71198E+07        0.96597  0.25288  0.05442
      19     -0.13980E+07       -0.28518  0.94133  0.18045
             -0.18782E+07        0.00000 -0.18827  0.98212
             -0.73023E+07        0.95847  0.28008  0.05369
      20     -0.12989E+07       -0.30400  0.94001  0.15481
             -0.18895E+07        0.00000 -0.16250  0.98671
             -0.76901E+07        0.95267  0.29996  0.04940
      21     -0.14455E+07       -0.32799  0.93234  0.15223
             -0.22239E+07       -0.00000 -0.16114  0.98693
             -0.86818E+07        0.94468  0.32370  0.05285
      22      0.22782E+06       -0.61432  0.78885 -0.01839
               40180.            0.78887  0.61349 -0.03635
              -46115.            0.01739  0.03684  0.99917
      23      0.34326E+06        0.93392 -0.35748  0.00178
               13970.            0.35694  0.93221 -0.05989
              -20304.            0.01975  0.05656  0.99820
      24      0.78786E+06        0.98647 -0.16388 -0.00380
              -41477.            0.01166  0.04704  0.99883
             -0.12515E+06        0.16351  0.98536 -0.04831
      25      0.11870E+07        0.99898 -0.04515 -0.00150
             -0.10614E+06        0.00478  0.07274  0.99734
             -0.20619E+06        0.04492  0.99633 -0.07288
      26      0.12971E+07        0.99902  0.04434  0.00152
             -0.13489E+06       -0.00490  0.07613  0.99709
             -0.26661E+06       -0.04410  0.99611 -0.07627
      27      0.10652E+07        0.98860  0.15045  0.00549
             -0.15413E+06       -0.01586  0.06787  0.99757
             -0.29836E+06       -0.14971  0.98629 -0.06948
      28      0.56062E+06        0.93357  0.35807  0.01519
             -0.15386E+06       -0.02692  0.02781  0.99925
             -0.35601E+06       -0.35738  0.93328 -0.03560
      29       94837.            0.61681  0.78513  0.05581
             -0.14169E+06       -0.03229 -0.04560  0.99844
             -0.66117E+06        0.78645 -0.61765 -0.00277
      30      -27869.            0.29047  0.95037  0.11149
             -0.12315E+06       -0.02735 -0.10822  0.99375
             -0.14161E+07        0.95649 -0.29170 -0.00544
      31      -40757.            0.16796  0.97664  0.13403
             -0.10151E+06       -0.01887 -0.13275  0.99097
             -0.23006E+07        0.98561 -0.16897 -0.00386
      32      -34373.            0.11076  0.98545  0.12892
              -83127.           -0.01173 -0.12841  0.99165
             -0.31549E+07        0.99378 -0.11135 -0.00266
      33      -28611.            0.07814  0.98821  0.13163
              -64569.           -0.00831 -0.13138  0.99130
             -0.39308E+07        0.99691 -0.07855 -0.00205
      34      -22266.            0.05738  0.99200  0.11247
              -58152.           -0.00515 -0.11236  0.99365
             -0.45950E+07        0.99834 -0.05760 -0.00134

          ***** POST1 NODAL STRESS PRINCIPAL DIRECTIONS *****

  LOAD STEP     1  SUBSTEP=     1
  TIME=    1.0000         LOAD CASE=  0

  NODE      PRINCIPAL STRESS     DIRECTION VECTOR (X,Y,Z)
             (S1,S2,S3)
      35      -29057.            0.04322  0.96142  0.27166
              -39596.           -0.01073 -0.27145  0.96239
             -0.51806E+07        0.99901 -0.04451 -0.00142
      36      -22755.            0.03515  0.99416  0.10203
              -60296.           -0.00314 -0.10198  0.99478
             -0.56396E+07        0.99938 -0.03529 -0.00046
      37      -7984.8            0.00232  0.01822  0.99983
              -64435.            0.03295  0.99929 -0.01828
             -0.61436E+07        0.99945 -0.03299 -0.00172
      38      -22989.            0.02998  0.99720  0.06848
             -0.11989E+06       -0.00265 -0.06843  0.99765
             -0.64463E+07        0.99955 -0.03010  0.00059
      39      0.10006E+06        0.00273 -0.01050  0.99994
             -0.18585E+06        0.04432  0.99896  0.01036
             -0.72624E+07        0.99901 -0.04429 -0.00319
      40       15960.            0.04860  0.99801  0.04028
             -0.33770E+06       -0.00249 -0.04021  0.99919
             -0.74948E+07        0.99882 -0.04866  0.00053
      41      0.60446E+06       -0.00034 -0.00829  0.99997
             -0.49160E+06        0.10476  0.99446  0.00828
             -0.10759E+08        0.99450 -0.10476 -0.00053
      42      0.22782E+06        0.61432  0.78885  0.01839
               40180.            0.78887 -0.61349 -0.03635
              -46115.            0.01739 -0.03684  0.99917
      43      0.30760E+06        0.41100  0.91080 -0.03907
               36842.           -0.00868  0.04676  0.99887
              -33412.            0.91159 -0.41020  0.02712
      44      0.10188E+07        0.18787  0.98201  0.01924
              -63004.            0.97864 -0.18882  0.08132
             -0.16970E+06       -0.08349 -0.00355  0.99650
      45      0.12734E+07        0.07099  0.99720 -0.02352
               59939.           -0.01604  0.02472  0.99957
             -0.32168E+06        0.99735 -0.07059  0.01775
      46      0.25863E+07        0.05494  0.99830  0.01938
             -0.14126E+06        0.99418 -0.05649  0.09168
             -0.67723E+06       -0.09262 -0.01423  0.99560
      47      0.14168E+07       -0.12956  0.98518 -0.11242
              0.52866E+06       -0.06125  0.10521  0.99256
             -0.10571E+07        0.98968  0.13549  0.04671
      48      0.47065E+07        0.00529  0.99981  0.01866
               77891.            0.99667 -0.00679  0.08129
             -0.24262E+07       -0.08140 -0.01817  0.99652
      49      0.25568E+07       -0.04669 -0.01375  0.99881
             -0.56922E+06       -0.65707  0.75356 -0.02034
             -0.54735E+07        0.75238  0.65724  0.04422
      50      0.92125E+07       -0.08307  0.99629 -0.02261
             -0.12973E+07        0.99008  0.08509  0.11183
             -0.76152E+07       -0.11333  0.01309  0.99347
      51      0.53507E+07        0.88422 -0.45580 -0.10203
             -0.20159E+06        0.08437 -0.05900  0.99469
             -0.65217E+08        0.45940  0.88813  0.01371

          ***** POST1 NODAL STRESS PRINCIPAL DIRECTIONS *****

  LOAD STEP     1  SUBSTEP=     1
  TIME=    1.0000         LOAD CASE=  0

  NODE      PRINCIPAL STRESS     DIRECTION VECTOR (X,Y,Z)
             (S1,S2,S3)
      52      0.17859E+08        0.00692 -0.00000  0.99998
             -0.28530E+08       -0.00000  1.00000  0.00000
             -0.12266E+09        0.99998  0.00000 -0.00692
      53      0.53507E+07        0.88422  0.45580 -0.10203
             -0.20159E+06        0.08437  0.05900  0.99469
             -0.65217E+08       -0.45940  0.88813 -0.01371
      54      0.92125E+07        0.08307  0.99629  0.02261
             -0.12973E+07        0.99008 -0.08509  0.11183
             -0.76152E+07       -0.11333 -0.01309  0.99347
      55      0.25568E+07       -0.04669  0.01375  0.99881
             -0.56922E+06        0.65707  0.75356  0.02034
             -0.54735E+07        0.75238 -0.65724  0.04422
      56      0.47065E+07       -0.00529  0.99981 -0.01866
               77891.            0.99667  0.00679  0.08129
             -0.24262E+07       -0.08140  0.01817  0.99652
      57      0.14168E+07        0.12956  0.98518  0.11242
              0.52866E+06       -0.06125 -0.10521  0.99256
             -0.10571E+07        0.98968 -0.13549  0.04671
      58      0.25863E+07       -0.05494  0.99830 -0.01938
             -0.14126E+06        0.99418  0.05649  0.09168
             -0.67723E+06       -0.09262  0.01423  0.99560
      59      0.12734E+07       -0.07099  0.99720  0.02352
               59939.           -0.01604 -0.02472  0.99957
             -0.32168E+06        0.99735  0.07059  0.01775
      60      0.10188E+07       -0.18787  0.98201 -0.01924
              -63004.            0.97864  0.18882  0.08132
             -0.16970E+06       -0.08349  0.00355  0.99650
      61      0.30760E+06       -0.41100  0.91080  0.03907
               36842.           -0.00868 -0.04676  0.99887
              -33412.            0.91159  0.41020  0.02712
      62      0.60446E+06       -0.00034  0.00829  0.99997
             -0.49160E+06       -0.10476  0.99446 -0.00828
             -0.10759E+08        0.99450  0.10476 -0.00053
      63       15960.           -0.04860  0.99801 -0.04028
             -0.33770E+06       -0.00249  0.04021  0.99919
             -0.74948E+07        0.99882  0.04866  0.00053
      64      0.10006E+06        0.00273  0.01050  0.99994
             -0.18585E+06       -0.04432  0.99896 -0.01036
             -0.72624E+07        0.99901  0.04429 -0.00319
      65      -22989.           -0.02998  0.99720 -0.06848
             -0.11989E+06       -0.00265  0.06843  0.99765
             -0.64463E+07        0.99955  0.03010  0.00059
      66      -7984.8            0.00232 -0.01822  0.99983
              -64435.           -0.03295  0.99929  0.01828
             -0.61436E+07        0.99945  0.03299 -0.00172
      67      -22755.           -0.03515  0.99416 -0.10203
              -60296.           -0.00314  0.10198  0.99478
             -0.56396E+07        0.99938  0.03529 -0.00046
      68      -29057.           -0.04322  0.96142 -0.27166
              -39596.           -0.01073  0.27145  0.96239
             -0.51806E+07        0.99901  0.04451 -0.00142

          ***** POST1 NODAL STRESS PRINCIPAL DIRECTIONS *****

  LOAD STEP     1  SUBSTEP=     1
  TIME=    1.0000         LOAD CASE=  0

  NODE      PRINCIPAL STRESS     DIRECTION VECTOR (X,Y,Z)
             (S1,S2,S3)
      69      -22266.           -0.05738  0.99200 -0.11247
              -58152.           -0.00515  0.11236  0.99365
             -0.45950E+07        0.99834  0.05760 -0.00134
      70      -28611.           -0.07814  0.98821 -0.13163
              -64569.           -0.00831  0.13138  0.99130
             -0.39308E+07        0.99691  0.07855 -0.00205
      71      -34373.           -0.11076  0.98545 -0.12892
              -83127.           -0.01173  0.12841  0.99165
             -0.31549E+07        0.99378  0.11135 -0.00266
      72      -40757.           -0.16796  0.97664 -0.13403
             -0.10151E+06       -0.01887  0.13275  0.99097
             -0.23006E+07        0.98561  0.16897 -0.00386
      73      -27869.           -0.29047  0.95037 -0.11149
             -0.12315E+06       -0.02735  0.10822  0.99375
             -0.14161E+07        0.95649  0.29170 -0.00544
      74       94837.           -0.61681  0.78513 -0.05581
             -0.14169E+06       -0.03229  0.04560  0.99844
             -0.66117E+06        0.78645  0.61765 -0.00277
      75      0.56062E+06        0.93357 -0.35807  0.01519
             -0.15386E+06       -0.02692 -0.02781  0.99925
             -0.35601E+06        0.35738  0.93328  0.03560
      76      0.10652E+07        0.98860 -0.15045  0.00549
             -0.15413E+06       -0.01586 -0.06787  0.99757
             -0.29836E+06        0.14971  0.98629  0.06948
      77      0.12971E+07        0.99902 -0.04434  0.00152
             -0.13489E+06       -0.00490 -0.07613  0.99709
             -0.26661E+06        0.04410  0.99611  0.07627
      78      0.11870E+07        0.99898  0.04515 -0.00150
             -0.10614E+06        0.00478 -0.07274  0.99734
             -0.20619E+06       -0.04492  0.99633  0.07288
      79      0.78786E+06        0.98647  0.16388 -0.00380
              -41477.            0.01166 -0.04704  0.99883
             -0.12515E+06       -0.16351  0.98536  0.04831
      80      0.34326E+06        0.93392  0.35748  0.00178
               13970.           -0.35694  0.93221  0.05989
              -20304.            0.01975 -0.05656  0.99820
      81      0.52889E+06       -0.00023  0.00484  0.99999
             -0.12728E+07       -0.16725  0.98590 -0.00481
             -0.95134E+07        0.98591  0.16725 -0.00058
      82       58127.           -0.11309  0.99302 -0.03335
             -0.26997E+06       -0.00422  0.03309  0.99944
             -0.79454E+07        0.99358  0.11317  0.00045
      83      0.10168E+06        0.00309  0.00129  0.99999
             -0.14064E+06       -0.07819  0.99694 -0.00104
             -0.75472E+07        0.99693  0.07819 -0.00318
      84       39649.           -0.06748  0.99534 -0.06885
              -48701.           -0.00523  0.06866  0.99763
             -0.68558E+07        0.99771  0.06768  0.00057
      85       25580.           -0.06519  0.99098 -0.11706
               6222.7           -0.00622  0.11691  0.99312
             -0.64696E+07        0.99785  0.06547 -0.00146

          ***** POST1 NODAL STRESS PRINCIPAL DIRECTIONS *****

  LOAD STEP     1  SUBSTEP=     1
  TIME=    1.0000         LOAD CASE=  0

  NODE      PRINCIPAL STRESS     DIRECTION VECTOR (X,Y,Z)
             (S1,S2,S3)
      86       77363.           -0.07339  0.99630 -0.04478
              -20278.           -0.00278  0.04470  0.99900
             -0.60139E+07        0.99730  0.07345 -0.00051
      87       98409.           -0.08819  0.99551 -0.03433
              -13360.           -0.00189  0.03429  0.99941
             -0.55751E+07        0.99610  0.08820 -0.00114
      88      0.13497E+06       -0.11127  0.99324 -0.03307
              -20622.           -0.00255  0.03300  0.99945
             -0.50730E+07        0.99379  0.11130 -0.00114
      89      0.17103E+06       -0.14310  0.98919 -0.03192
              -22465.           -0.00305  0.03181  0.99949
             -0.45168E+07        0.98970  0.14312 -0.00154
      90      0.21504E+06       -0.18597  0.98200 -0.03298
              -26903.           -0.00435  0.03274  0.99945
             -0.38944E+07        0.98255  0.18601 -0.00182
      91      0.26225E+06       -0.24250  0.96955 -0.03420
              -30148.           -0.00619  0.03371  0.99941
             -0.32197E+07        0.97013  0.24257 -0.00217
      92      0.30912E+06       -0.31661  0.94788 -0.03580
              -32786.           -0.00916  0.03469  0.99936
             -0.25140E+07        0.94851  0.31674 -0.00230
      93      0.34581E+06       -0.41350  0.90975 -0.03707
              -33588.           -0.01367  0.03451  0.99931
             -0.18134E+07        0.91040  0.41373 -0.00183
      94      0.35965E+06       -0.54189  0.83960 -0.03779
              -31313.           -0.02092  0.03148  0.99929
             -0.11639E+07        0.84019  0.54229  0.00050
      95      0.34681E+06        0.71830 -0.69488  0.03436
              -25370.           -0.03159  0.01677  0.99936
             -0.62207E+06        0.69502  0.71893  0.00990
      96      0.34990E+06        0.93520 -0.35368  0.01778
              -19696.           -0.03060 -0.03067  0.99906
             -0.27196E+06        0.35280  0.93486  0.03950
      97      0.43102E+06        0.99175  0.12813 -0.00220
              -551.51            0.00900 -0.05252  0.99858
             -0.19397E+06       -0.12784  0.99037  0.05324
      98      0.49719E+06        0.90119  0.43338 -0.00572
              -16720.            0.00794 -0.00332  0.99996
             -0.17893E+06       -0.43334  0.90121  0.00644
      99      0.40360E+06        0.72593  0.68769 -0.01075
               2052.0           -0.01209  0.02839  0.99952
              -90419.           -0.68767  0.72545 -0.02892
     100      0.38561E+06       -0.00222  0.00651  0.99998
             -0.15671E+07       -0.24769  0.96881 -0.00686
             -0.85336E+07        0.96884  0.24770  0.00054
     101     -0.15805E+06        0.00363 -0.02766  0.99961
             -0.37918E+06       -0.17788  0.98366  0.02787
             -0.79425E+07        0.98405  0.17791  0.00135
     102       55775.            0.00450 -0.01369  0.99990
             -0.26663E+06       -0.14002  0.99005  0.01418
             -0.77504E+07        0.99014  0.14007 -0.00254

          ***** POST1 NODAL STRESS PRINCIPAL DIRECTIONS *****

  LOAD STEP     1  SUBSTEP=     1
  TIME=    1.0000         LOAD CASE=  0

  NODE      PRINCIPAL STRESS     DIRECTION VECTOR (X,Y,Z)
             (S1,S2,S3)
     103       905.99           -0.10977  0.91753 -0.38222
              -14909.           -0.04535  0.37952  0.92407
             -0.72911E+07        0.99292  0.11877 -0.00005
     104       86225.           -0.11599  0.99122 -0.06344
               9899.0           -0.00633  0.06313  0.99799
             -0.69468E+07        0.99323  0.11616 -0.00105
     105      0.19567E+06       -0.12487  0.99178 -0.02808
              -429.92           -0.00298  0.02793  0.99961
             -0.65917E+07        0.99217  0.12490 -0.00053
     106      0.28048E+06       -0.14451  0.98928 -0.02117
              -5.1155           -0.00233  0.02106  0.99978
             -0.62468E+07        0.98950  0.14452 -0.00074
     107      0.36952E+06       -0.17290  0.98475 -0.01918
              -1348.4           -0.00266  0.01901  0.99982
             -0.58856E+07        0.98494  0.17291 -0.00066
     108      0.45653E+06       -0.20956  0.97762 -0.01877
              -1336.4           -0.00326  0.01849  0.99982
             -0.55012E+07        0.97779  0.20958 -0.00068
     109      0.53803E+06       -0.25333  0.96718 -0.01968
              -2.3249           -0.00440  0.01919  0.99981
             -0.50847E+07        0.96737  0.25337 -0.00060
     110      0.59924E+06       -0.30326  0.95266 -0.02157
               2508.7           -0.00613  0.02068  0.99977
             -0.46272E+07        0.95289  0.30332 -0.00043
     111      0.61689E+06       -0.35827  0.93328 -0.02505
               6556.7           -0.00889  0.02342  0.99969
             -0.41172E+07        0.93357  0.35838 -0.00009
     112      0.56144E+06       -0.41794  0.90792 -0.03183
               12547.           -0.01371  0.02873  0.99949
             -0.35402E+07        0.90837  0.41817  0.00044
     113      0.40925E+06       -0.48334  0.87408 -0.04863
               20020.           -0.02475  0.04188  0.99882
             -0.28835E+07        0.87508  0.48397  0.00139
     114      0.16321E+06       -0.55563  0.81946 -0.14059
               25728.           -0.08096  0.11496  0.99007
             -0.21476E+07        0.82748  0.56149  0.00247
     115       43374.            0.06252 -0.07703  0.99507
             -0.13653E+06       -0.67012  0.73562  0.09905
             -0.13715E+07        0.73962  0.67300  0.00563
     116       23144.            0.02727 -0.02357  0.99935
             -0.29235E+06        0.93916 -0.34181 -0.03369
             -0.66052E+06        0.34239  0.93947  0.01282
     117       89068.            0.83326  0.55206  0.03018
               59212.           -0.00980 -0.03984  0.99916
             -0.49663E+06       -0.55280  0.83285  0.02779
     118      0.54520E+06        0.51828  0.85498  0.01994
              -19085.            0.03125 -0.04224  0.99862
             -0.15928E+06        0.85464 -0.51694 -0.04861
     119      0.46631E+06       -0.00126  0.00272  1.00000
             -0.17489E+07       -0.24243  0.97016 -0.00295
             -0.82078E+07        0.97017  0.24243  0.00056

          ***** POST1 NODAL STRESS PRINCIPAL DIRECTIONS *****

  LOAD STEP     1  SUBSTEP=     1
  TIME=    1.0000         LOAD CASE=  0

  NODE      PRINCIPAL STRESS     DIRECTION VECTOR (X,Y,Z)
             (S1,S2,S3)
     120     -0.22636E+06       -0.00162  0.00109  1.00000
             -0.57421E+06       -0.20321  0.97913 -0.00140
             -0.77002E+07        0.97913  0.20321  0.00137
     121       70021.            0.00414 -0.01150  0.99993
             -0.42433E+06       -0.17037  0.98531  0.01204
             -0.78397E+07        0.98537  0.17041 -0.00212
     122      -15541.           -0.14995  0.98036 -0.12807
              -43389.           -0.01957  0.12657  0.99176
             -0.75607E+07        0.98850  0.15122  0.00021
     123      0.15792E+06       -0.14620  0.98856 -0.03713
               9750.0           -0.00447  0.03687  0.99931
             -0.73889E+07        0.98925  0.14626 -0.00097
     124      0.35407E+06       -0.15390  0.98798 -0.01443
              -10134.           -0.00191  0.01431  0.99990
             -0.71560E+07        0.98808  0.15391 -0.00032
     125      0.50421E+06       -0.17159  0.98509 -0.01265
              -2204.9           -0.00164  0.01255  0.99992
             -0.69493E+07        0.98517  0.17159 -0.00054
     126      0.65285E+06       -0.19765  0.98021 -0.01111
              -7159.2           -0.00184  0.01096  0.99994
             -0.67319E+07        0.98027  0.19766 -0.00037
     127      0.78425E+06       -0.23047  0.97302 -0.01126
              -7616.5           -0.00227  0.01103  0.99994
             -0.65108E+07        0.97308  0.23048 -0.00033
     128      0.89368E+06       -0.26884  0.96311 -0.01184
              -10797.           -0.00301  0.01146  0.99993
             -0.62672E+07        0.96318  0.26886 -0.00018
     129      0.95780E+06       -0.31200  0.94999 -0.01327
              -13857.           -0.00414  0.01261  0.99991
             -0.59834E+07        0.95007  0.31202 -0.00000
     130      0.94737E+06       -0.35992  0.93285 -0.01577
              -17131.           -0.00593  0.01462  0.99988
             -0.56287E+07        0.93296  0.35997  0.00027
     131      0.83093E+06       -0.41380  0.91013 -0.02065
              -20135.           -0.00913  0.01853  0.99979
             -0.51640E+07        0.91032  0.41390  0.00064
     132      0.58627E+06       -0.47631  0.87868 -0.03238
              -19067.           -0.01634  0.02798  0.99947
             -0.45491E+07        0.87912  0.47659  0.00103
     133      0.23287E+06       -0.55093  0.83012 -0.08586
              -12256.           -0.04895  0.07056  0.99631
             -0.37550E+07        0.83312  0.55310  0.00176
     134      -1057.0            0.08478 -0.10170  0.99120
             -0.15384E+06       -0.64716  0.75077  0.13238
             -0.27917E+07        0.75763  0.65268  0.00217
     135       39667.            0.03457 -0.03183  0.99890
             -0.43195E+06        0.79484 -0.60501 -0.04679
             -0.17389E+07        0.60583  0.79558  0.00438
     136      -5780.4            0.03000 -0.00728  0.99952
             -0.34683E+06        0.99404 -0.10459 -0.03059
             -0.68464E+06        0.10477  0.99449  0.00410

          ***** POST1 NODAL STRESS PRINCIPAL DIRECTIONS *****

  LOAD STEP     1  SUBSTEP=     1
  TIME=    1.0000         LOAD CASE=  0

  NODE      PRINCIPAL STRESS     DIRECTION VECTOR (X,Y,Z)
             (S1,S2,S3)
     137      0.47212E+06        0.39901  0.91680 -0.01674
               7986.4            0.00843  0.01458  0.99986
             -0.18565E+06        0.91691 -0.39909 -0.00191
     138      0.44037E+06       -0.00102  0.00023  1.00000
             -0.18173E+07       -0.22634  0.97405 -0.00045
             -0.80456E+07        0.97405  0.22634  0.00094
     139     -0.18078E+06       -0.00249  0.00483  0.99999
             -0.73679E+06       -0.19656  0.98048 -0.00522
             -0.76531E+07        0.98049  0.19657  0.00149
     140       61004.            0.00338 -0.00774  0.99996
             -0.52432E+06       -0.17560  0.98443  0.00821
             -0.79065E+07        0.98446  0.17562 -0.00197
     141      -32318.            0.01926 -0.11978  0.99261
              -51505.           -0.15970  0.97968  0.12132
             -0.78057E+07        0.98698  0.16085  0.00025
     142      0.21844E+06       -0.15684  0.98738 -0.02186
               7333.3           -0.00264  0.02172  0.99976
             -0.77825E+07        0.98762  0.15686 -0.00080
     143      0.49087E+06       -0.16268  0.98664 -0.00921
              -5928.1           -0.00127  0.00912  0.99996
             -0.76982E+07        0.98668  0.16269 -0.00023
     144      0.71016E+06       -0.17730  0.98412 -0.00804
              -172.03           -0.00107  0.00797  0.99997
             -0.76334E+07        0.98416  0.17730 -0.00036
     145      0.91229E+06       -0.19915  0.97994 -0.00718
              -3010.6           -0.00126  0.00708  0.99997
             -0.75677E+07        0.97997  0.19916 -0.00017
     146      0.10839E+07       -0.22709  0.97385 -0.00727
              -3693.5           -0.00156  0.00710  0.99997
             -0.75084E+07        0.97387  0.22709 -0.00009
     147      0.12170E+07       -0.26035  0.96548 -0.00769
              -6514.2           -0.00207  0.00741  0.99997
             -0.74396E+07        0.96551  0.26036  0.00007
     148      0.12878E+07       -0.29892  0.95424 -0.00864
              -10040.           -0.00281  0.00818  0.99996
             -0.73403E+07        0.95427  0.29893  0.00024
     149      0.12673E+07       -0.34382  0.93898 -0.01039
              -14967.           -0.00402  0.00959  0.99995
             -0.71737E+07        0.93903  0.34384  0.00048
     150      0.11248E+07       -0.39730  0.91758 -0.01372
              -20867.           -0.00605  0.01233  0.99991
             -0.68879E+07        0.91767  0.39735  0.00065
     151      0.84035E+06       -0.46312  0.88604 -0.02133
              -21720.           -0.01084  0.01840  0.99977
             -0.64205E+07        0.88623  0.46324  0.00109
     152      0.44144E+06       -0.54573  0.83667 -0.04645
              -26883.           -0.02615  0.03840  0.99892
             -0.56951E+07        0.83755  0.54636  0.00092
     153       36706.            0.25446 -0.30032  0.91927
              -32240.           -0.59837  0.69786  0.39362
             -0.46969E+07        0.75974  0.65022  0.00213

          ***** POST1 NODAL STRESS PRINCIPAL DIRECTIONS *****

  LOAD STEP     1  SUBSTEP=     1
  TIME=    1.0000         LOAD CASE=  0

  NODE      PRINCIPAL STRESS     DIRECTION VECTOR (X,Y,Z)
             (S1,S2,S3)
     154      -36242.            0.07133 -0.05994  0.99565
             -0.26042E+06        0.76565 -0.63647 -0.09317
             -0.33371E+07        0.63928  0.76897  0.00050
     155      0.18771E+06        0.05393 -0.03539  0.99792
             -0.43966E+06        0.89217 -0.44714 -0.06407
             -0.18681E+07        0.44847  0.89377  0.00746
     156      0.38492E+06       -0.12978  0.99121  0.02582
              -25885.            0.76860  0.08412  0.63418
             -0.11904E+06       -0.62643 -0.10215  0.77275
     157      0.45207E+06       -0.00102  0.00036  1.00000
             -0.19007E+07       -0.19907  0.97999 -0.00056
             -0.80142E+07        0.97999  0.19907  0.00093
     158     -0.18996E+06       -0.00175  0.00055  1.00000
             -0.80476E+06       -0.17674  0.98426 -0.00085
             -0.76599E+07        0.98426  0.17674  0.00162
     159       69371.            0.00282 -0.00571  0.99998
             -0.58944E+06       -0.16270  0.98666  0.00609
             -0.80080E+07        0.98667  0.16272 -0.00186
     160      -34489.            0.01127 -0.07515  0.99711
              -63227.           -0.15271  0.98534  0.07599
             -0.80196E+07        0.98821  0.15312  0.00037
     161      0.26858E+06       -0.15077  0.98845 -0.01554
               8656.6           -0.00167  0.01547  0.99988
             -0.81292E+07        0.98857  0.15078 -0.00068
     162      0.60888E+06       -0.15563  0.98779 -0.00677
              -6551.2           -0.00095  0.00671  0.99998
             -0.81792E+07        0.98781  0.15564 -0.00011
     163      0.88825E+06       -0.16740  0.98587 -0.00584
               552.71           -0.00075  0.00579  0.99998
             -0.82545E+07        0.98589  0.16740 -0.00023
     164      0.11422E+07       -0.18525  0.98268 -0.00526
              -2444.9           -0.00095  0.00518  0.99999
             -0.83365E+07        0.98269  0.18526 -0.00003
     165      0.13555E+07       -0.20859  0.97799 -0.00534
              -2978.3           -0.00118  0.00521  0.99999
             -0.84385E+07        0.97800  0.20860  0.00007
     166      0.15211E+07       -0.23723  0.97144 -0.00567
              -6402.6           -0.00157  0.00545  0.99998
             -0.85500E+07        0.97145  0.23723  0.00024
     167      0.16175E+07       -0.27172  0.96235 -0.00640
              -11252.           -0.00215  0.00605  0.99998
             -0.86554E+07        0.96237  0.27173  0.00042
     168      0.16188E+07       -0.31363  0.94951 -0.00766
              -19334.           -0.00298  0.00709  0.99997
             -0.87229E+07        0.94954  0.31365  0.00061
     169      0.14972E+07       -0.36580  0.93064 -0.00996
              -29003.           -0.00449  0.00894  0.99995
             -0.87028E+07        0.93068  0.36582  0.00091
     170      0.12344E+07       -0.43259  0.90147 -0.01484
              -46715.           -0.00728  0.01297  0.99989
             -0.85155E+07        0.90156  0.43266  0.00096

          ***** POST1 NODAL STRESS PRINCIPAL DIRECTIONS *****

  LOAD STEP     1  SUBSTEP=     1
  TIME=    1.0000         LOAD CASE=  0

  NODE      PRINCIPAL STRESS     DIRECTION VECTOR (X,Y,Z)
             (S1,S2,S3)
     171      0.82685E+06       -0.51873  0.85450 -0.02726
              -38743.           -0.01547  0.02250  0.99963
             -0.80632E+07        0.85480  0.51896  0.00154
     172      0.38978E+06       -0.62688  0.77648 -0.06403
              -77023.           -0.04127  0.04897  0.99795
             -0.71777E+07        0.77803  0.62823  0.00134
     173      0.13339E+06        0.15096 -0.13547  0.97921
             -0.10265E+06        0.73613 -0.64573 -0.20282
             -0.58096E+07        0.65979  0.75145  0.00224
     174       27372.            0.84172 -0.53331  0.08418
             -0.12189E+06       -0.07025  0.04640  0.99645
             -0.35619E+07        0.53532  0.84465 -0.00159
     175      0.10416E+06       -0.02211 -0.06391  0.99771
               1424.2            0.80802 -0.58882 -0.01981
             -0.80918E+06        0.58874  0.80574  0.06466
     176      0.45507E+06       -0.00097 -0.00030  1.00000
             -0.19698E+07       -0.16614  0.98610  0.00014
             -0.80360E+07        0.98610  0.16614  0.00100
     177     -0.18513E+06       -0.00192  0.00163  1.00000
             -0.85642E+06       -0.14830  0.98894 -0.00189
             -0.77200E+07        0.98894  0.14830  0.00165
     178       71868.            0.00253 -0.00514  0.99998
             -0.62229E+06       -0.13908  0.99027  0.00545
             -0.81268E+07        0.99028  0.13909 -0.00179
     179      -31018.            0.00521 -0.04190  0.99911
              -65462.           -0.13308  0.99021  0.04222
             -0.82206E+07        0.99109  0.13318  0.00042
     180      0.31137E+06       -0.13239  0.99114 -0.01112
               10774.           -0.00088  0.01110  0.99994
             -0.84308E+07        0.99120  0.13239 -0.00059
     181      0.70245E+06       -0.13663  0.99061 -0.00470
              -4358.3           -0.00061  0.00466  0.99999
             -0.85946E+07        0.99062  0.13663 -0.00003
     182      0.10324E+07       -0.14602  0.98927 -0.00415
               2829.5           -0.00048  0.00413  0.99999
             -0.87946E+07        0.98928  0.14602 -0.00013
     183      0.13329E+07       -0.16027  0.98707 -0.00372
               564.17           -0.00067  0.00366  0.99999
             -0.90146E+07        0.98707  0.16027  0.00007
     184      0.15883E+07       -0.17925  0.98380 -0.00378
               713.54           -0.00085  0.00368  0.99999
             -0.92731E+07        0.98380  0.17925  0.00017
     185      0.17932E+07       -0.20318  0.97913 -0.00398
              -1208.4           -0.00116  0.00383  0.99999
             -0.95689E+07        0.97914  0.20318  0.00036
     186      0.19306E+07       -0.23291  0.97249 -0.00450
              -6161.9           -0.00154  0.00426  0.99999
             -0.98973E+07        0.97250  0.23291  0.00050
     187      0.19771E+07       -0.27015  0.96280 -0.00524
              -10512.           -0.00218  0.00483  0.99999
             -0.10247E+08        0.96282  0.27016  0.00079

          ***** POST1 NODAL STRESS PRINCIPAL DIRECTIONS *****

  LOAD STEP     1  SUBSTEP=     1
  TIME=    1.0000         LOAD CASE=  0

  NODE      PRINCIPAL STRESS     DIRECTION VECTOR (X,Y,Z)
             (S1,S2,S3)
     188      0.19173E+07       -0.31793  0.94809 -0.00699
              -30666.           -0.00301  0.00636  0.99998
             -0.10575E+08        0.94811  0.31794  0.00083
     189      0.17094E+07       -0.38023  0.92485 -0.00889
              -30853.           -0.00478  0.00764  0.99996
             -0.10847E+08        0.92488  0.38025  0.00151
     190      0.14123E+07       -0.46424  0.88554 -0.01700
             -0.11921E+06       -0.00869  0.01463  0.99986
             -0.10878E+08        0.88567  0.46432  0.00090
     191      0.84996E+06       -0.57378  0.81818 -0.03676
               12642.           -0.02282  0.02890  0.99932
             -0.10591E+08        0.81869  0.57423  0.00209
     192      0.69395E+06        0.70765 -0.70516  0.04452
             -0.33561E+06       -0.03341  0.02954  0.99900
             -0.92425E+07        0.70577  0.70843  0.00265
     193      0.69379E+06        0.09372 -0.06416  0.99353
             -0.27717E+06        0.83749 -0.53454 -0.11352
             -0.71974E+07        0.53836  0.84271  0.00364
     194      0.94426E+06        0.82154 -0.56598  0.06878
             -0.35181E+06       -0.01456  0.09977  0.99490
             -0.21640E+07        0.56996  0.81836 -0.07372
     195      0.46180E+06       -0.00097 -0.00027  1.00000
             -0.20326E+07       -0.12839  0.99172  0.00015
             -0.80826E+07        0.99172  0.12839  0.00100
     196     -0.18759E+06       -0.00176  0.00051  1.00000
             -0.88559E+06       -0.11478  0.99339 -0.00071
             -0.77918E+07        0.99339  0.11478  0.00169
     197       75168.            0.00220 -0.00390  0.99999
             -0.63918E+06       -0.10874  0.99406  0.00412
             -0.82443E+07        0.99407  0.10875 -0.00176
     198      -29651.            0.00404 -0.04256  0.99909
              -58374.           -0.10526  0.99353  0.04274
             -0.83952E+07        0.99444  0.10534  0.00047
     199      0.34789E+06       -0.10550  0.99439 -0.00771
               12944.           -0.00028  0.00772  0.99997
             -0.86804E+07        0.99442  0.10550 -0.00053
     200      0.77566E+06       -0.10906  0.99403 -0.00333
              -2518.3           -0.00039  0.00331  0.99999
             -0.89332E+07        0.99404  0.10906  0.00003
     201      0.11445E+07       -0.11625  0.99322 -0.00291
               5207.6           -0.00028  0.00290  1.00000
             -0.92364E+07        0.99322  0.11625 -0.00006
     202      0.14846E+07       -0.12707  0.99189 -0.00263
               3395.2           -0.00047  0.00259  1.00000
             -0.95753E+07        0.99189  0.12707  0.00014
     203      0.17792E+07       -0.14165  0.98991 -0.00263
               5357.2           -0.00063  0.00257  1.00000
             -0.99754E+07        0.98992  0.14165  0.00026
     204      0.20265E+07       -0.16041  0.98705 -0.00283
               3764.0           -0.00086  0.00273  1.00000
             -0.10444E+08        0.98705  0.16041  0.00041

          ***** POST1 NODAL STRESS PRINCIPAL DIRECTIONS *****

  LOAD STEP     1  SUBSTEP=     1
  TIME=    1.0000         LOAD CASE=  0

  NODE      PRINCIPAL STRESS     DIRECTION VECTOR (X,Y,Z)
             (S1,S2,S3)
     205      0.22105E+07       -0.18416  0.98289 -0.00303
               5074.1           -0.00119  0.00286  1.00000
             -0.10997E+08        0.98289  0.18417  0.00065
     206      0.23226E+07       -0.21467  0.97668 -0.00387
              -4781.9           -0.00156  0.00362  0.99999
             -0.11638E+08        0.97669  0.21467  0.00075
     207      0.23306E+07       -0.25406  0.96718 -0.00399
               1660.9           -0.00222  0.00354  0.99999
             -0.12392E+08        0.96719  0.25407  0.00125
     208      0.22559E+07       -0.30725  0.95160 -0.00760
              -53951.           -0.00326  0.00693  0.99997
             -0.13201E+08        0.95162  0.30727  0.00098
     209      0.19846E+07       -0.37735  0.92606 -0.00519
               1347.7           -0.00412  0.00393  0.99998
             -0.14124E+08        0.92606  0.37737  0.00233
     210      0.18062E+07       -0.48050  0.87674 -0.02140
             -0.34527E+06       -0.01170  0.01799  0.99977
             -0.14699E+08        0.87692  0.48064  0.00161
     211      0.80149E+06       -0.61824  0.78048 -0.09283
              0.21596E+06       -0.05726  0.07306  0.99568
             -0.14873E+08        0.78390  0.62089 -0.00048
     212      0.15992E+07        0.78604 -0.61747  0.02962
             -0.96114E+06       -0.03095  0.00854  0.99948
             -0.12342E+08        0.61740  0.78655  0.01240
     213      0.96515E+06       -0.09432  0.01894  0.99536
             -0.25308E+06        0.90569 -0.41345  0.09370
             -0.71614E+07        0.41330  0.91033  0.02184
     214      0.46682E+06       -0.00098 -0.00029  1.00000
             -0.20813E+07       -0.08740  0.99617  0.00020
             -0.81298E+07        0.99617  0.08740  0.00100
     215     -0.18819E+06       -0.00174  0.00047  1.00000
             -0.90504E+06       -0.07804  0.99695 -0.00061
             -0.78590E+07        0.99695  0.07804  0.00170
     216       77263.            0.00196 -0.00278  0.99999
             -0.64635E+06       -0.07437  0.99723  0.00291
             -0.83426E+07        0.99723  0.07437 -0.00175
     217      -28230.            0.00225 -0.03780  0.99928
              -49182.           -0.07253  0.99665  0.03786
             -0.85321E+07        0.99736  0.07256  0.00050
     218      0.37634E+06       -0.07306  0.99732 -0.00489
               14859.            0.00014  0.00491  0.99999
             -0.88691E+07        0.99733  0.07306 -0.00049
     219      0.82854E+06       -0.07567  0.99713 -0.00210
              -548.82           -0.00023  0.00209  1.00000
             -0.91856E+07        0.99713  0.07567  0.00007
     220      0.12251E+07       -0.08060  0.99674 -0.00185
               7471.9           -0.00013  0.00185  1.00000
             -0.95656E+07        0.99675  0.08060 -0.00002
     221      0.15947E+07       -0.08794  0.99612 -0.00165
               6928.0           -0.00034  0.00163  1.00000
             -0.99971E+07        0.99613  0.08794  0.00019

          ***** POST1 NODAL STRESS PRINCIPAL DIRECTIONS *****

  LOAD STEP     1  SUBSTEP=     1
  TIME=    1.0000         LOAD CASE=  0

  NODE      PRINCIPAL STRESS     DIRECTION VECTOR (X,Y,Z)
             (S1,S2,S3)
     222      0.19223E+07       -0.09791  0.99519 -0.00169
               9176.3           -0.00045  0.00165  1.00000
             -0.10509E+08        0.99520  0.09791  0.00029
     223      0.22046E+07       -0.11083  0.99384 -0.00173
               12793.           -0.00070  0.00166  1.00000
             -0.11125E+08        0.99384  0.11083  0.00051
     224      0.24382E+07       -0.12754  0.99183 -0.00202
               11056.           -0.00085  0.00193  1.00000
             -0.11867E+08        0.99183  0.12755  0.00060
     225      0.25989E+07       -0.14893  0.98885 -0.00207
               24201.           -0.00134  0.00190  1.00000
             -0.12791E+08        0.98885  0.14893  0.00104
     226      0.27147E+07       -0.17759  0.98410 -0.00324
               317.35           -0.00137  0.00305  0.99999
             -0.13912E+08        0.98410  0.17760  0.00081
     227      0.26804E+07       -0.21458  0.97670 -0.00220
               61965.           -0.00262  0.00168  1.00000
             -0.15400E+08        0.97670  0.21459  0.00220
     228      0.27213E+07       -0.26829  0.96330 -0.00843
             -0.11440E+06       -0.00261  0.00802  0.99996
             -0.17105E+08        0.96333  0.26830  0.00036
     229      0.21914E+07       -0.33645  0.94170  0.00307
              0.26023E+06       -0.00327 -0.00443  0.99998
             -0.19682E+08        0.94170  0.33643  0.00457
     230      0.28271E+07       -0.45655  0.88957 -0.01471
             -0.11967E+07       -0.00932  0.01175  0.99989
             -0.21546E+08        0.88965  0.45664  0.00293
     231      0.12759E+07        0.06305 -0.06275  0.99604
             -0.11098E+07       -0.66239  0.74388  0.08880
             -0.23618E+08        0.74650  0.66537 -0.00534
     232      0.56225E+07        0.85967 -0.50577  0.07187
             -0.22467E+07       -0.06442  0.03222  0.99740
             -0.16262E+08        0.50677  0.86206  0.00488
     233      0.47038E+06       -0.00099 -0.00015  1.00000
             -0.21127E+07       -0.04423  0.99902  0.00011
             -0.81636E+07        0.99902  0.04423  0.00100
     234     -0.18930E+06       -0.00172  0.00016  1.00000
             -0.91531E+06       -0.03945  0.99922 -0.00022
             -0.79048E+07        0.99922  0.03945  0.00171
     235       78639.            0.00179 -0.00142  1.00000
             -0.64893E+06       -0.03770  0.99929  0.00148
             -0.84075E+07        0.99929  0.03770 -0.00174
     236      -27516.            0.00057 -0.02940  0.99957
              -41679.           -0.03693  0.99889  0.02940
             -0.86194E+07        0.99932  0.03693  0.00051
     237      0.39467E+06       -0.03730  0.99930 -0.00238
               16078.            0.00038  0.00239  1.00000
             -0.89869E+07        0.99930  0.03730 -0.00047
     238      0.86095E+06       -0.03869  0.99925 -0.00102
               710.49           -0.00013  0.00102  1.00000
             -0.93418E+07        0.99925  0.03869  0.00009

          ***** POST1 NODAL STRESS PRINCIPAL DIRECTIONS *****

  LOAD STEP     1  SUBSTEP=     1
  TIME=    1.0000         LOAD CASE=  0

  NODE      PRINCIPAL STRESS     DIRECTION VECTOR (X,Y,Z)
             (S1,S2,S3)
     239      0.12738E+07       -0.04121  0.99915 -0.00091
               9178.9           -0.00005  0.00091  1.00000
             -0.97693E+07        0.99915  0.04121  0.00001
     240      0.16622E+07       -0.04494  0.99899 -0.00080
               9109.7           -0.00025  0.00079  1.00000
             -0.10259E+08        0.99899  0.04494  0.00022
     241      0.20106E+07       -0.04999  0.99875 -0.00084
               12866.           -0.00037  0.00082  1.00000
             -0.10845E+08        0.99875  0.04999  0.00033
     242      0.23190E+07       -0.05664  0.99839 -0.00081
               17579.           -0.00057  0.00078  1.00000
             -0.11556E+08        0.99839  0.05664  0.00053
     243      0.25822E+07       -0.06515  0.99788 -0.00104
               21180.           -0.00074  0.00099  1.00000
             -0.12432E+08        0.99788  0.06515  0.00068
     244      0.27921E+07       -0.07647  0.99707 -0.00087
               35898.           -0.00104  0.00079  1.00000
             -0.13545E+08        0.99707  0.07647  0.00097
     245      0.29536E+07       -0.09083  0.99587 -0.00181
               33471.           -0.00130  0.00170  1.00000
             -0.14967E+08        0.99587  0.09083  0.00114
     246      0.30383E+07       -0.11133  0.99378 -0.00052
               92063.           -0.00155  0.00035  1.00000
             -0.16907E+08        0.99378  0.11133  0.00151
     247      0.31043E+07       -0.13648  0.99063 -0.00465
               37977.           -0.00289  0.00429  0.99999
             -0.19495E+08        0.99064  0.13649  0.00228
     248      0.29961E+07       -0.17774  0.98407  0.00255
              0.24544E+06       -0.00093 -0.00276  1.00000
             -0.23448E+08        0.98408  0.17774  0.00141
     249      0.27988E+07       -0.22300  0.97461 -0.02022
              0.20802E+06       -0.00937  0.01860  0.99978
             -0.29174E+08        0.97477  0.22315  0.00498
     250      0.32274E+07       -0.32834  0.94367  0.04095
             -0.80046E+06        0.00522 -0.04154  0.99912
             -0.39096E+08        0.94455  0.32826  0.00872
     251     -0.24388E+07       -0.01465 -0.01209  0.99982
             -0.10789E+08       -0.69620  0.71785 -0.00152
             -0.38580E+08        0.71770  0.69610  0.01893
     252      0.47160E+06       -0.00099  0.00000  1.00000
             -0.21235E+07       -0.00000  1.00000 -0.00000
             -0.81758E+07        1.00000  0.00000  0.00099
     253     -0.18953E+06       -0.00171  0.00000  1.00000
             -0.91874E+06       -0.00000  1.00000 -0.00000
             -0.79211E+07        1.00000  0.00000  0.00171
     254       79099.            0.00174  0.00000  1.00000
             -0.64950E+06       -0.00000  1.00000 -0.00000
             -0.84301E+07        1.00000  0.00000 -0.00174
     255      -27265.           -0.00052  0.00000  1.00000
              -38870.           -0.00000  1.00000 -0.00000
             -0.86494E+07        1.00000  0.00000  0.00052

          ***** POST1 NODAL STRESS PRINCIPAL DIRECTIONS *****

  LOAD STEP     1  SUBSTEP=     1
  TIME=    1.0000         LOAD CASE=  0

  NODE      PRINCIPAL STRESS     DIRECTION VECTOR (X,Y,Z)
             (S1,S2,S3)
     256      0.40096E+06       -0.00000  1.00000  0.00000
               16568.            0.00046 -0.00000  1.00000
             -0.90271E+07        1.00000  0.00000 -0.00046
     257      0.87192E+06       -0.00000  1.00000 -0.00000
               1080.6           -0.00009  0.00000  1.00000
             -0.93946E+07        1.00000  0.00000  0.00009
     258      0.12900E+07       -0.00000  1.00000 -0.00000
               10056.           -0.00002  0.00000  1.00000
             -0.98385E+07        1.00000  0.00000  0.00002
     259      0.16853E+07       -0.00000  1.00000 -0.00000
               9353.4           -0.00021  0.00000  1.00000
             -0.10348E+08        1.00000  0.00000  0.00021
     260      0.20397E+07       -0.00000  1.00000 -0.00000
               15734.           -0.00037  0.00000  1.00000
             -0.10961E+08        1.00000  0.00000  0.00037
     261      0.23603E+07       -0.00000  1.00000 -0.00000
               15758.           -0.00045  0.00000  1.00000
             -0.11701E+08        1.00000  0.00000  0.00045
     262      0.26269E+07       -0.00000  1.00000 -0.00000
               34424.           -0.00087  0.00000  1.00000
             -0.12636E+08        1.00000  0.00000  0.00087
     263      0.28730E+07       -0.00000  1.00000 -0.00000
               17308.           -0.00061  0.00000  1.00000
             -0.13790E+08        1.00000  0.00000  0.00061
     264      0.30052E+07       -0.00000  1.00000  0.00000
              0.10565E+06       -0.00186 -0.00000  1.00000
             -0.15389E+08        1.00000  0.00000  0.00186
     265      0.32510E+07       -0.00000  1.00000  0.00000
              -37292.           -0.00036 -0.00000  1.00000
             -0.17344E+08        1.00000  0.00000  0.00036
     266      0.30417E+07       -0.00000  1.00000  0.00000
              0.44116E+06       -0.00366 -0.00000  0.99999
             -0.20651E+08        0.99999  0.00000  0.00366
     267      0.37794E+07       -0.00000  1.00000  0.00000
             -0.42233E+06       -0.00054 -0.00000  1.00000
             -0.24418E+08        1.00000  0.00000  0.00054
     268      0.20782E+07       -0.00000  1.00000  0.00000
              0.19136E+07       -0.00441 -0.00000  0.99999
             -0.33531E+08        0.99999  0.00000  0.00441
     269      0.50442E+07       -0.00000  1.00000  0.00000
             -0.80235E+06       -0.00363 -0.00000  0.99999
             -0.44992E+08        0.99999  0.00000  0.00363
     270      0.86372E+07       -0.00170  0.00000  1.00000
              0.53214E+07       -0.00000  1.00000 -0.00000
             -0.10330E+09        1.00000  0.00000  0.00170
     271      0.47038E+06       -0.00099  0.00015  1.00000
             -0.21127E+07        0.04423  0.99902 -0.00011
             -0.81636E+07        0.99902 -0.04423  0.00100
     272     -0.18930E+06       -0.00172 -0.00016  1.00000
             -0.91531E+06        0.03945  0.99922  0.00022
             -0.79048E+07        0.99922 -0.03945  0.00171

          ***** POST1 NODAL STRESS PRINCIPAL DIRECTIONS *****

  LOAD STEP     1  SUBSTEP=     1
  TIME=    1.0000         LOAD CASE=  0

  NODE      PRINCIPAL STRESS     DIRECTION VECTOR (X,Y,Z)
             (S1,S2,S3)
     273       78639.            0.00179  0.00142  1.00000
             -0.64893E+06        0.03770  0.99929 -0.00148
             -0.84075E+07        0.99929 -0.03770 -0.00174
     274      -27516.            0.00057  0.02940  0.99957
              -41679.            0.03693  0.99889 -0.02940
             -0.86194E+07        0.99932 -0.03693  0.00051
     275      0.39467E+06        0.03730  0.99930  0.00238
               16078.            0.00038 -0.00239  1.00000
             -0.89869E+07        0.99930 -0.03730 -0.00047
     276      0.86095E+06        0.03869  0.99925  0.00102
               710.49           -0.00013 -0.00102  1.00000
             -0.93418E+07        0.99925 -0.03869  0.00009
     277      0.12738E+07        0.04121  0.99915  0.00091
               9178.9           -0.00005 -0.00091  1.00000
             -0.97693E+07        0.99915 -0.04121  0.00001
     278      0.16622E+07        0.04494  0.99899  0.00080
               9109.7           -0.00025 -0.00079  1.00000
             -0.10259E+08        0.99899 -0.04494  0.00022
     279      0.20106E+07        0.04999  0.99875  0.00084
               12866.           -0.00037 -0.00082  1.00000
             -0.10845E+08        0.99875 -0.04999  0.00033
     280      0.23190E+07        0.05664  0.99839  0.00081
               17579.           -0.00057 -0.00078  1.00000
             -0.11556E+08        0.99839 -0.05664  0.00053
     281      0.25822E+07        0.06515  0.99788  0.00104
               21180.           -0.00074 -0.00099  1.00000
             -0.12432E+08        0.99788 -0.06515  0.00068
     282      0.27921E+07        0.07647  0.99707  0.00087
               35898.           -0.00104 -0.00079  1.00000
             -0.13545E+08        0.99707 -0.07647  0.00097
     283      0.29536E+07        0.09083  0.99587  0.00181
               33471.           -0.00130 -0.00170  1.00000
             -0.14967E+08        0.99587 -0.09083  0.00114
     284      0.30383E+07        0.11133  0.99378  0.00052
               92063.           -0.00155 -0.00035  1.00000
             -0.16907E+08        0.99378 -0.11133  0.00151
     285      0.31043E+07        0.13648  0.99063  0.00465
               37977.           -0.00289 -0.00429  0.99999
             -0.19495E+08        0.99064 -0.13649  0.00228
     286      0.29961E+07        0.17774  0.98407 -0.00255
              0.24544E+06       -0.00093  0.00276  1.00000
             -0.23448E+08        0.98408 -0.17774  0.00141
     287      0.27988E+07        0.22300  0.97461  0.02022
              0.20802E+06       -0.00937 -0.01860  0.99978
             -0.29174E+08        0.97477 -0.22315  0.00498
     288      0.32274E+07        0.32834  0.94367 -0.04095
             -0.80046E+06        0.00522  0.04154  0.99912
             -0.39096E+08        0.94455 -0.32826  0.00872
     289     -0.24388E+07       -0.01465  0.01209  0.99982
             -0.10789E+08        0.69620  0.71785  0.00152
             -0.38580E+08        0.71770 -0.69610  0.01893

          ***** POST1 NODAL STRESS PRINCIPAL DIRECTIONS *****

  LOAD STEP     1  SUBSTEP=     1
  TIME=    1.0000         LOAD CASE=  0

  NODE      PRINCIPAL STRESS     DIRECTION VECTOR (X,Y,Z)
             (S1,S2,S3)
     290      0.46682E+06       -0.00098  0.00029  1.00000
             -0.20813E+07        0.08740  0.99617 -0.00020
             -0.81298E+07        0.99617 -0.08740  0.00100
     291     -0.18819E+06       -0.00174 -0.00047  1.00000
             -0.90504E+06        0.07804  0.99695  0.00061
             -0.78590E+07        0.99695 -0.07804  0.00170
     292       77263.            0.00196  0.00278  0.99999
             -0.64635E+06        0.07437  0.99723 -0.00291
             -0.83426E+07        0.99723 -0.07437 -0.00175
     293      -28230.            0.00225  0.03780  0.99928
              -49182.            0.07253  0.99665 -0.03786
             -0.85321E+07        0.99736 -0.07256  0.00050
     294      0.37634E+06        0.07306  0.99732  0.00489
               14859.            0.00014 -0.00491  0.99999
             -0.88691E+07        0.99733 -0.07306 -0.00049
     295      0.82854E+06        0.07567  0.99713  0.00210
              -548.82           -0.00023 -0.00209  1.00000
             -0.91856E+07        0.99713 -0.07567  0.00007
     296      0.12251E+07        0.08060  0.99674  0.00185
               7471.9           -0.00013 -0.00185  1.00000
             -0.95656E+07        0.99675 -0.08060 -0.00002
     297      0.15947E+07        0.08794  0.99612  0.00165
               6928.0           -0.00034 -0.00163  1.00000
             -0.99971E+07        0.99613 -0.08794  0.00019
     298      0.19223E+07        0.09791  0.99519  0.00169
               9176.3           -0.00045 -0.00165  1.00000
             -0.10509E+08        0.99520 -0.09791  0.00029
     299      0.22046E+07        0.11083  0.99384  0.00173
               12793.           -0.00070 -0.00166  1.00000
             -0.11125E+08        0.99384 -0.11083  0.00051
     300      0.24382E+07        0.12754  0.99183  0.00202
               11056.           -0.00085 -0.00193  1.00000
             -0.11867E+08        0.99183 -0.12755  0.00060
     301      0.25989E+07        0.14893  0.98885  0.00207
               24201.           -0.00134 -0.00190  1.00000
             -0.12791E+08        0.98885 -0.14893  0.00104
     302      0.27147E+07        0.17759  0.98410  0.00324
               317.35           -0.00137 -0.00305  0.99999
             -0.13912E+08        0.98410 -0.17760  0.00081
     303      0.26804E+07        0.21458  0.97670  0.00220
               61965.           -0.00262 -0.00168  1.00000
             -0.15400E+08        0.97670 -0.21459  0.00220
     304      0.27213E+07        0.26829  0.96330  0.00843
             -0.11440E+06       -0.00261 -0.00802  0.99996
             -0.17105E+08        0.96333 -0.26830  0.00036
     305      0.21914E+07        0.33645  0.94170 -0.00307
              0.26023E+06       -0.00327  0.00443  0.99998
             -0.19682E+08        0.94170 -0.33643  0.00457
     306      0.28271E+07        0.45655  0.88957  0.01471
             -0.11967E+07       -0.00932 -0.01175  0.99989
             -0.21546E+08        0.88965 -0.45664  0.00293

          ***** POST1 NODAL STRESS PRINCIPAL DIRECTIONS *****

  LOAD STEP     1  SUBSTEP=     1
  TIME=    1.0000         LOAD CASE=  0

  NODE      PRINCIPAL STRESS     DIRECTION VECTOR (X,Y,Z)
             (S1,S2,S3)
     307      0.12759E+07        0.06305  0.06275  0.99604
             -0.11098E+07        0.66239  0.74388 -0.08880
             -0.23618E+08        0.74650 -0.66537 -0.00534
     308      0.56225E+07        0.85967  0.50577  0.07187
             -0.22467E+07       -0.06442 -0.03222  0.99740
             -0.16262E+08       -0.50677  0.86206 -0.00488
     309      0.46180E+06       -0.00097  0.00027  1.00000
             -0.20326E+07        0.12839  0.99172 -0.00015
             -0.80826E+07        0.99172 -0.12839  0.00100
     310     -0.18759E+06       -0.00176 -0.00051  1.00000
             -0.88559E+06        0.11478  0.99339  0.00071
             -0.77918E+07        0.99339 -0.11478  0.00169
     311       75168.            0.00220  0.00390  0.99999
             -0.63918E+06        0.10874  0.99406 -0.00412
             -0.82443E+07        0.99407 -0.10875 -0.00176
     312      -29651.            0.00404  0.04256  0.99909
              -58374.            0.10526  0.99353 -0.04274
             -0.83952E+07        0.99444 -0.10534  0.00047
     313      0.34789E+06        0.10550  0.99439  0.00771
               12944.           -0.00028 -0.00772  0.99997
             -0.86804E+07        0.99442 -0.10550 -0.00053
     314      0.77566E+06        0.10906  0.99403  0.00333
              -2518.3           -0.00039 -0.00331  0.99999
             -0.89332E+07        0.99404 -0.10906  0.00003
     315      0.11445E+07        0.11625  0.99322  0.00291
               5207.6           -0.00028 -0.00290  1.00000
             -0.92364E+07        0.99322 -0.11625 -0.00006
     316      0.14846E+07        0.12707  0.99189  0.00263
               3395.2           -0.00047 -0.00259  1.00000
             -0.95753E+07        0.99189 -0.12707  0.00014
     317      0.17792E+07        0.14165  0.98991  0.00263
               5357.2           -0.00063 -0.00257  1.00000
             -0.99754E+07        0.98992 -0.14165  0.00026
     318      0.20265E+07        0.16041  0.98705  0.00283
               3764.0           -0.00086 -0.00273  1.00000
             -0.10444E+08        0.98705 -0.16041  0.00041
     319      0.22105E+07        0.18416  0.98289  0.00303
               5074.1           -0.00119 -0.00286  1.00000
             -0.10997E+08        0.98289 -0.18417  0.00065
     320      0.23226E+07        0.21467  0.97668  0.00387
              -4781.9           -0.00156 -0.00362  0.99999
             -0.11638E+08        0.97669 -0.21467  0.00075
     321      0.23306E+07        0.25406  0.96718  0.00399
               1660.9           -0.00222 -0.00354  0.99999
             -0.12392E+08        0.96719 -0.25407  0.00125
     322      0.22559E+07        0.30725  0.95160  0.00760
              -53951.           -0.00326 -0.00693  0.99997
             -0.13201E+08        0.95162 -0.30727  0.00098
     323      0.19846E+07        0.37735  0.92606  0.00519
               1347.7           -0.00412 -0.00393  0.99998
             -0.14124E+08        0.92606 -0.37737  0.00233

          ***** POST1 NODAL STRESS PRINCIPAL DIRECTIONS *****

  LOAD STEP     1  SUBSTEP=     1
  TIME=    1.0000         LOAD CASE=  0

  NODE      PRINCIPAL STRESS     DIRECTION VECTOR (X,Y,Z)
             (S1,S2,S3)
     324      0.18062E+07        0.48050  0.87674  0.02140
             -0.34527E+06       -0.01170 -0.01799  0.99977
             -0.14699E+08        0.87692 -0.48064  0.00161
     325      0.80149E+06        0.61824  0.78048  0.09283
              0.21596E+06       -0.05726 -0.07306  0.99568
             -0.14873E+08        0.78390 -0.62089 -0.00048
     326      0.15992E+07        0.78604  0.61747  0.02962
             -0.96114E+06       -0.03095 -0.00854  0.99948
             -0.12342E+08       -0.61740  0.78655 -0.01240
     327      0.96515E+06       -0.09432 -0.01894  0.99536
             -0.25308E+06        0.90569  0.41345  0.09370
             -0.71614E+07       -0.41330  0.91033 -0.02184
     328      0.45507E+06       -0.00097  0.00030  1.00000
             -0.19698E+07        0.16614  0.98610 -0.00014
             -0.80360E+07        0.98610 -0.16614  0.00100
     329     -0.18513E+06       -0.00192 -0.00163  1.00000
             -0.85642E+06        0.14830  0.98894  0.00189
             -0.77200E+07        0.98894 -0.14830  0.00165
     330       71868.            0.00253  0.00514  0.99998
             -0.62229E+06        0.13908  0.99027 -0.00545
             -0.81268E+07        0.99028 -0.13909 -0.00179
     331      -31018.            0.00521  0.04190  0.99911
              -65462.            0.13308  0.99021 -0.04222
             -0.82206E+07        0.99109 -0.13318  0.00042
     332      0.31137E+06        0.13239  0.99114  0.01112
               10774.           -0.00088 -0.01110  0.99994
             -0.84308E+07        0.99120 -0.13239 -0.00059
     333      0.70245E+06        0.13663  0.99061  0.00470
              -4358.3           -0.00061 -0.00466  0.99999
             -0.85946E+07        0.99062 -0.13663 -0.00003
     334      0.10324E+07        0.14602  0.98927  0.00415
               2829.5           -0.00048 -0.00413  0.99999
             -0.87946E+07        0.98928 -0.14602 -0.00013
     335      0.13329E+07        0.16027  0.98707  0.00372
               564.17           -0.00067 -0.00366  0.99999
             -0.90146E+07        0.98707 -0.16027  0.00007
     336      0.15883E+07        0.17925  0.98380  0.00378
               713.54           -0.00085 -0.00368  0.99999
             -0.92731E+07        0.98380 -0.17925  0.00017
     337      0.17932E+07        0.20318  0.97913  0.00398
              -1208.4           -0.00116 -0.00383  0.99999
             -0.95689E+07        0.97914 -0.20318  0.00036
     338      0.19306E+07        0.23291  0.97249  0.00450
              -6161.9           -0.00154 -0.00426  0.99999
             -0.98973E+07        0.97250 -0.23291  0.00050
     339      0.19771E+07        0.27015  0.96280  0.00524
              -10512.           -0.00218 -0.00483  0.99999
             -0.10247E+08        0.96282 -0.27016  0.00079
     340      0.19173E+07        0.31793  0.94809  0.00699
              -30666.           -0.00301 -0.00636  0.99998
             -0.10575E+08        0.94811 -0.31794  0.00083

          ***** POST1 NODAL STRESS PRINCIPAL DIRECTIONS *****

  LOAD STEP     1  SUBSTEP=     1
  TIME=    1.0000         LOAD CASE=  0

  NODE      PRINCIPAL STRESS     DIRECTION VECTOR (X,Y,Z)
             (S1,S2,S3)
     341      0.17094E+07        0.38023  0.92485  0.00889
              -30853.           -0.00478 -0.00764  0.99996
             -0.10847E+08        0.92488 -0.38025  0.00151
     342      0.14123E+07        0.46424  0.88554  0.01700
             -0.11921E+06       -0.00869 -0.01463  0.99986
             -0.10878E+08        0.88567 -0.46432  0.00090
     343      0.84996E+06        0.57378  0.81818  0.03676
               12642.           -0.02282 -0.02890  0.99932
             -0.10591E+08        0.81869 -0.57423  0.00209
     344      0.69395E+06        0.70765  0.70516  0.04452
             -0.33561E+06       -0.03341 -0.02954  0.99900
             -0.92425E+07       -0.70577  0.70843 -0.00265
     345      0.69379E+06        0.09372  0.06416  0.99353
             -0.27717E+06        0.83749  0.53454 -0.11352
             -0.71974E+07       -0.53836  0.84271 -0.00364
     346      0.94426E+06        0.82154  0.56598  0.06878
             -0.35181E+06       -0.01456 -0.09977  0.99490
             -0.21640E+07       -0.56996  0.81836  0.07372
     347      0.45207E+06       -0.00102 -0.00036  1.00000
             -0.19007E+07        0.19907  0.97999  0.00056
             -0.80142E+07        0.97999 -0.19907  0.00093
     348     -0.18996E+06       -0.00175 -0.00055  1.00000
             -0.80476E+06        0.17674  0.98426  0.00085
             -0.76599E+07        0.98426 -0.17674  0.00162
     349       69371.            0.00282  0.00571  0.99998
             -0.58944E+06        0.16270  0.98666 -0.00609
             -0.80080E+07        0.98667 -0.16272 -0.00186
     350      -34489.            0.01127  0.07515  0.99711
              -63227.            0.15271  0.98534 -0.07599
             -0.80196E+07        0.98821 -0.15312  0.00037
     351      0.26858E+06        0.15077  0.98845  0.01554
               8656.6           -0.00167 -0.01547  0.99988
             -0.81292E+07        0.98857 -0.15078 -0.00068
     352      0.60888E+06        0.15563  0.98779  0.00677
              -6551.2           -0.00095 -0.00671  0.99998
             -0.81792E+07        0.98781 -0.15564 -0.00011
     353      0.88825E+06        0.16740  0.98587  0.00584
               552.71           -0.00075 -0.00579  0.99998
             -0.82545E+07        0.98589 -0.16740 -0.00023
     354      0.11422E+07        0.18525  0.98268  0.00526
              -2444.9           -0.00095 -0.00518  0.99999
             -0.83365E+07        0.98269 -0.18526 -0.00003
     355      0.13555E+07        0.20859  0.97799  0.00534
              -2978.3           -0.00118 -0.00521  0.99999
             -0.84385E+07        0.97800 -0.20860  0.00007
     356      0.15211E+07        0.23723  0.97144  0.00567
              -6402.6           -0.00157 -0.00545  0.99998
             -0.85500E+07        0.97145 -0.23723  0.00024
     357      0.16175E+07        0.27172  0.96235  0.00640
              -11252.           -0.00215 -0.00605  0.99998
             -0.86554E+07        0.96237 -0.27173  0.00042

          ***** POST1 NODAL STRESS PRINCIPAL DIRECTIONS *****

  LOAD STEP     1  SUBSTEP=     1
  TIME=    1.0000         LOAD CASE=  0

  NODE      PRINCIPAL STRESS     DIRECTION VECTOR (X,Y,Z)
             (S1,S2,S3)
     358      0.16188E+07        0.31363  0.94951  0.00766
              -19334.           -0.00298 -0.00709  0.99997
             -0.87229E+07        0.94954 -0.31365  0.00061
     359      0.14972E+07        0.36580  0.93064  0.00996
              -29003.           -0.00449 -0.00894  0.99995
             -0.87028E+07        0.93068 -0.36582  0.00091
     360      0.12344E+07        0.43259  0.90147  0.01484
              -46715.           -0.00728 -0.01297  0.99989
             -0.85155E+07        0.90156 -0.43266  0.00096
     361      0.82685E+06        0.51873  0.85450  0.02726
              -38743.           -0.01547 -0.02250  0.99963
             -0.80632E+07        0.85480 -0.51896  0.00154
     362      0.38978E+06        0.62688  0.77648  0.06403
              -77023.           -0.04127 -0.04897  0.99795
             -0.71777E+07        0.77803 -0.62823  0.00134
     363      0.13339E+06        0.15096  0.13547  0.97921
             -0.10265E+06        0.73613  0.64573 -0.20282
             -0.58096E+07       -0.65979  0.75145 -0.00224
     364       27372.            0.84172  0.53331  0.08418
             -0.12189E+06       -0.07025 -0.04640  0.99645
             -0.35619E+07       -0.53532  0.84465  0.00159
     365      0.10416E+06       -0.02211  0.06391  0.99771
               1424.2            0.80802  0.58882 -0.01981
             -0.80918E+06       -0.58874  0.80574 -0.06466
     366      0.44037E+06       -0.00102 -0.00023  1.00000
             -0.18173E+07        0.22634  0.97405  0.00045
             -0.80456E+07        0.97405 -0.22634  0.00094
     367     -0.18078E+06       -0.00249 -0.00483  0.99999
             -0.73679E+06        0.19656  0.98048  0.00522
             -0.76531E+07        0.98049 -0.19657  0.00149
     368       61004.            0.00338  0.00774  0.99996
             -0.52432E+06        0.17560  0.98443 -0.00821
             -0.79065E+07        0.98446 -0.17562 -0.00197
     369      -32318.            0.01926  0.11978  0.99261
              -51505.            0.15970  0.97968 -0.12132
             -0.78057E+07        0.98698 -0.16085  0.00025
     370      0.21844E+06        0.15684  0.98738  0.02186
               7333.3           -0.00264 -0.02172  0.99976
             -0.77825E+07        0.98762 -0.15686 -0.00080
     371      0.49087E+06        0.16268  0.98664  0.00921
              -5928.1           -0.00127 -0.00912  0.99996
             -0.76982E+07        0.98668 -0.16269 -0.00023
     372      0.71016E+06        0.17730  0.98412  0.00804
              -172.03           -0.00107 -0.00797  0.99997
             -0.76334E+07        0.98416 -0.17730 -0.00036
     373      0.91229E+06        0.19915  0.97994  0.00718
              -3010.6           -0.00126 -0.00708  0.99997
             -0.75677E+07        0.97997 -0.19916 -0.00017
     374      0.10839E+07        0.22709  0.97385  0.00727
              -3693.5           -0.00156 -0.00710  0.99997
             -0.75084E+07        0.97387 -0.22709 -0.00009

          ***** POST1 NODAL STRESS PRINCIPAL DIRECTIONS *****

  LOAD STEP     1  SUBSTEP=     1
  TIME=    1.0000         LOAD CASE=  0

  NODE      PRINCIPAL STRESS     DIRECTION VECTOR (X,Y,Z)
             (S1,S2,S3)
     375      0.12170E+07        0.26035  0.96548  0.00769
              -6514.2           -0.00207 -0.00741  0.99997
             -0.74396E+07        0.96551 -0.26036  0.00007
     376      0.12878E+07        0.29892  0.95424  0.00864
              -10040.           -0.00281 -0.00818  0.99996
             -0.73403E+07        0.95427 -0.29893  0.00024
     377      0.12673E+07        0.34382  0.93898  0.01039
              -14967.           -0.00402 -0.00959  0.99995
             -0.71737E+07        0.93903 -0.34384  0.00048
     378      0.11248E+07        0.39730  0.91758  0.01372
              -20867.           -0.00605 -0.01233  0.99991
             -0.68879E+07        0.91767 -0.39735  0.00065
     379      0.84035E+06        0.46312  0.88604  0.02133
              -21720.           -0.01084 -0.01840  0.99977
             -0.64205E+07        0.88623 -0.46324  0.00109
     380      0.44144E+06        0.54573  0.83667  0.04645
              -26883.           -0.02615 -0.03840  0.99892
             -0.56951E+07        0.83755 -0.54636  0.00092
     381       36706.            0.25446  0.30032  0.91927
              -32240.            0.59837  0.69786 -0.39362
             -0.46969E+07        0.75974 -0.65022  0.00213
     382      -36242.            0.07133  0.05994  0.99565
             -0.26042E+06        0.76565  0.63647 -0.09317
             -0.33371E+07       -0.63928  0.76897 -0.00050
     383      0.18771E+06        0.05393  0.03539  0.99792
             -0.43966E+06        0.89217  0.44714 -0.06407
             -0.18681E+07       -0.44847  0.89377 -0.00746
     384      0.38492E+06        0.12978  0.99121 -0.02582
              -25885.            0.76860 -0.08412  0.63418
             -0.11904E+06       -0.62643  0.10215  0.77275
     385      0.46631E+06       -0.00126 -0.00272  1.00000
             -0.17489E+07        0.24243  0.97016  0.00295
             -0.82078E+07        0.97017 -0.24243  0.00056
     386     -0.22636E+06       -0.00162 -0.00109  1.00000
             -0.57421E+06        0.20321  0.97913  0.00140
             -0.77002E+07        0.97913 -0.20321  0.00137
     387       70021.            0.00414  0.01150  0.99993
             -0.42433E+06        0.17037  0.98531 -0.01204
             -0.78397E+07        0.98537 -0.17041 -0.00212
     388      -15541.            0.14995  0.98036  0.12807
              -43389.           -0.01957 -0.12657  0.99176
             -0.75607E+07        0.98850 -0.15122  0.00021
     389      0.15792E+06        0.14620  0.98856  0.03713
               9750.0           -0.00447 -0.03687  0.99931
             -0.73889E+07        0.98925 -0.14626 -0.00097
     390      0.35407E+06        0.15390  0.98798  0.01443
              -10134.           -0.00191 -0.01431  0.99990
             -0.71560E+07        0.98808 -0.15391 -0.00032
     391      0.50421E+06        0.17159  0.98509  0.01265
              -2204.9           -0.00164 -0.01255  0.99992
             -0.69493E+07        0.98517 -0.17159 -0.00054

          ***** POST1 NODAL STRESS PRINCIPAL DIRECTIONS *****

  LOAD STEP     1  SUBSTEP=     1
  TIME=    1.0000         LOAD CASE=  0

  NODE      PRINCIPAL STRESS     DIRECTION VECTOR (X,Y,Z)
             (S1,S2,S3)
     392      0.65285E+06        0.19765  0.98021  0.01111
              -7159.2           -0.00184 -0.01096  0.99994
             -0.67319E+07        0.98027 -0.19766 -0.00037
     393      0.78425E+06        0.23047  0.97302  0.01126
              -7616.5           -0.00227 -0.01103  0.99994
             -0.65108E+07        0.97308 -0.23048 -0.00033
     394      0.89368E+06        0.26884  0.96311  0.01184
              -10797.           -0.00301 -0.01146  0.99993
             -0.62672E+07        0.96318 -0.26886 -0.00018
     395      0.95780E+06        0.31200  0.94999  0.01327
              -13857.           -0.00414 -0.01261  0.99991
             -0.59834E+07        0.95007 -0.31202 -0.00000
     396      0.94737E+06        0.35992  0.93285  0.01577
              -17131.           -0.00593 -0.01462  0.99988
             -0.56287E+07        0.93296 -0.35997  0.00027
     397      0.83093E+06        0.41380  0.91013  0.02065
              -20135.           -0.00913 -0.01853  0.99979
             -0.51640E+07        0.91032 -0.41390  0.00064
     398      0.58627E+06        0.47631  0.87868  0.03238
              -19067.           -0.01634 -0.02798  0.99947
             -0.45491E+07        0.87912 -0.47659  0.00103
     399      0.23287E+06        0.55093  0.83012  0.08586
              -12256.           -0.04895 -0.07056  0.99631
             -0.37550E+07        0.83312 -0.55310  0.00176
     400      -1057.0            0.08478  0.10170  0.99120
             -0.15384E+06        0.64716  0.75077 -0.13238
             -0.27917E+07        0.75763 -0.65268  0.00217
     401       39667.            0.03457  0.03183  0.99890
             -0.43195E+06        0.79484  0.60501 -0.04679
             -0.17389E+07       -0.60583  0.79558 -0.00438
     402      -5780.4            0.03000  0.00728  0.99952
             -0.34683E+06        0.99404  0.10459 -0.03059
             -0.68464E+06       -0.10477  0.99449 -0.00410
     403      0.47212E+06       -0.39901  0.91680  0.01674
               7986.4            0.00843 -0.01458  0.99986
             -0.18565E+06        0.91691  0.39909 -0.00191
     404      0.38561E+06       -0.00222 -0.00651  0.99998
             -0.15671E+07        0.24769  0.96881  0.00686
             -0.85336E+07        0.96884 -0.24770  0.00054
     405     -0.15805E+06        0.00363  0.02766  0.99961
             -0.37918E+06        0.17788  0.98366 -0.02787
             -0.79425E+07        0.98405 -0.17791  0.00135
     406       55775.            0.00450  0.01369  0.99990
             -0.26663E+06        0.14002  0.99005 -0.01418
             -0.77504E+07        0.99014 -0.14007 -0.00254
     407       905.99            0.10977  0.91753  0.38222
              -14909.           -0.04535 -0.37952  0.92407
             -0.72911E+07        0.99292 -0.11877 -0.00005
     408       86225.            0.11599  0.99122  0.06344
               9899.0           -0.00633 -0.06313  0.99799
             -0.69468E+07        0.99323 -0.11616 -0.00105

          ***** POST1 NODAL STRESS PRINCIPAL DIRECTIONS *****

  LOAD STEP     1  SUBSTEP=     1
  TIME=    1.0000         LOAD CASE=  0

  NODE      PRINCIPAL STRESS     DIRECTION VECTOR (X,Y,Z)
             (S1,S2,S3)
     409      0.19567E+06        0.12487  0.99178  0.02808
              -429.92           -0.00298 -0.02793  0.99961
             -0.65917E+07        0.99217 -0.12490 -0.00053
     410      0.28048E+06        0.14451  0.98928  0.02117
              -5.1155           -0.00233 -0.02106  0.99978
             -0.62468E+07        0.98950 -0.14452 -0.00074
     411      0.36952E+06        0.17290  0.98475  0.01918
              -1348.4           -0.00266 -0.01901  0.99982
             -0.58856E+07        0.98494 -0.17291 -0.00066
     412      0.45653E+06        0.20956  0.97762  0.01877
              -1336.4           -0.00326 -0.01849  0.99982
             -0.55012E+07        0.97779 -0.20958 -0.00068
     413      0.53803E+06        0.25333  0.96718  0.01968
              -2.3249           -0.00440 -0.01919  0.99981
             -0.50847E+07        0.96737 -0.25337 -0.00060
     414      0.59924E+06        0.30326  0.95266  0.02157
               2508.7           -0.00613 -0.02068  0.99977
             -0.46272E+07        0.95289 -0.30332 -0.00043
     415      0.61689E+06        0.35827  0.93328  0.02505
               6556.7           -0.00889 -0.02342  0.99969
             -0.41172E+07        0.93357 -0.35838 -0.00009
     416      0.56144E+06        0.41794  0.90792  0.03183
               12547.           -0.01371 -0.02873  0.99949
             -0.35402E+07        0.90837 -0.41817  0.00044
     417      0.40925E+06        0.48334  0.87408  0.04863
               20020.           -0.02475 -0.04188  0.99882
             -0.28835E+07        0.87508 -0.48397  0.00139
     418      0.16321E+06        0.55563  0.81946  0.14059
               25728.           -0.08096 -0.11496  0.99007
             -0.21476E+07        0.82748 -0.56149  0.00247
     419       43374.            0.06252  0.07703  0.99507
             -0.13653E+06        0.67012  0.73562 -0.09905
             -0.13715E+07        0.73962 -0.67300  0.00563
     420       23144.            0.02727  0.02357  0.99935
             -0.29235E+06        0.93916  0.34181 -0.03369
             -0.66052E+06       -0.34239  0.93947 -0.01282
     421       89068.            0.83326 -0.55206  0.03018
               59212.           -0.00980  0.03984  0.99916
             -0.49663E+06        0.55280  0.83285 -0.02779
     422      0.54520E+06       -0.51828  0.85498 -0.01994
              -19085.            0.03125  0.04224  0.99862
             -0.15928E+06        0.85464  0.51694 -0.04861
     423      0.52889E+06       -0.00023 -0.00484  0.99999
             -0.12728E+07        0.16725  0.98590  0.00481
             -0.95134E+07        0.98591 -0.16725 -0.00058
     424       58127.            0.11309  0.99302  0.03335
             -0.26997E+06       -0.00422 -0.03309  0.99944
             -0.79454E+07        0.99358 -0.11317  0.00045
     425      0.10168E+06        0.00309 -0.00129  0.99999
             -0.14064E+06        0.07819  0.99694  0.00104
             -0.75472E+07        0.99693 -0.07819 -0.00318

          ***** POST1 NODAL STRESS PRINCIPAL DIRECTIONS *****

  LOAD STEP     1  SUBSTEP=     1
  TIME=    1.0000         LOAD CASE=  0

  NODE      PRINCIPAL STRESS     DIRECTION VECTOR (X,Y,Z)
             (S1,S2,S3)
     426       39649.            0.06748  0.99534  0.06885
              -48701.           -0.00523 -0.06866  0.99763
             -0.68558E+07        0.99771 -0.06768  0.00057
     427       25580.            0.06519  0.99098  0.11706
               6222.7           -0.00622 -0.11691  0.99312
             -0.64696E+07        0.99785 -0.06547 -0.00146
     428       77363.            0.07339  0.99630  0.04478
              -20278.           -0.00278 -0.04470  0.99900
             -0.60139E+07        0.99730 -0.07345 -0.00051
     429       98409.            0.08819  0.99551  0.03433
              -13360.           -0.00189 -0.03429  0.99941
             -0.55751E+07        0.99610 -0.08820 -0.00114
     430      0.13497E+06        0.11127  0.99324  0.03307
              -20622.           -0.00255 -0.03300  0.99945
             -0.50730E+07        0.99379 -0.11130 -0.00114
     431      0.17103E+06        0.14310  0.98919  0.03192
              -22465.           -0.00305 -0.03181  0.99949
             -0.45168E+07        0.98970 -0.14312 -0.00154
     432      0.21504E+06        0.18597  0.98200  0.03298
              -26903.           -0.00435 -0.03274  0.99945
             -0.38944E+07        0.98255 -0.18601 -0.00182
     433      0.26225E+06        0.24250  0.96955  0.03420
              -30148.           -0.00619 -0.03371  0.99941
             -0.32197E+07        0.97013 -0.24257 -0.00217
     434      0.30912E+06        0.31661  0.94788  0.03580
              -32786.           -0.00916 -0.03469  0.99936
             -0.25140E+07        0.94851 -0.31674 -0.00230
     435      0.34581E+06        0.41350  0.90975  0.03707
              -33588.           -0.01367 -0.03451  0.99931
             -0.18134E+07        0.91040 -0.41373 -0.00183
     436      0.35965E+06        0.54189  0.83960  0.03779
              -31313.           -0.02092 -0.03148  0.99929
             -0.11639E+07        0.84019 -0.54229  0.00050
     437      0.34681E+06        0.71830  0.69488  0.03436
              -25370.           -0.03159 -0.01677  0.99936
             -0.62207E+06       -0.69502  0.71893 -0.00990
     438      0.34990E+06        0.93520  0.35368  0.01778
              -19696.           -0.03060  0.03067  0.99906
             -0.27196E+06       -0.35280  0.93486 -0.03950
     439      0.43102E+06        0.99175 -0.12813 -0.00220
              -551.51            0.00900  0.05252  0.99858
             -0.19397E+06        0.12784  0.99037 -0.05324
     440      0.49719E+06        0.90119 -0.43338 -0.00572
              -16720.            0.00794  0.00332  0.99996
             -0.17893E+06        0.43334  0.90121 -0.00644
     441      0.40360E+06        0.72593 -0.68769 -0.01075
               2052.0           -0.01209 -0.02839  0.99952
              -90419.            0.68767  0.72545  0.02892
     442     -0.46314E+06       -0.32585  0.94020 -0.09927
             -0.16440E+07       -0.00000  0.10500  0.99447
             -0.11585E+08        0.94542  0.32404 -0.03421

          ***** POST1 NODAL STRESS PRINCIPAL DIRECTIONS *****

  LOAD STEP     1  SUBSTEP=     1
  TIME=    1.0000         LOAD CASE=  0

  NODE      PRINCIPAL STRESS     DIRECTION VECTOR (X,Y,Z)
             (S1,S2,S3)
     443      0.22782E+06        0.61432  0.78885 -0.01839
               40180.            0.78887 -0.61349  0.03635
              -46115.           -0.01739  0.03684  0.99917
     444      0.60446E+06        0.00034 -0.00829  0.99997
             -0.49160E+06       -0.10476  0.99446  0.00828
             -0.10759E+08        0.99450  0.10476  0.00053
     445       15960.           -0.04860  0.99801  0.04028
             -0.33770E+06        0.00249 -0.04021  0.99919
             -0.74948E+07        0.99882  0.04866 -0.00053
     446      0.10006E+06       -0.00273 -0.01050  0.99994
             -0.18585E+06       -0.04432  0.99896  0.01036
             -0.72624E+07        0.99901  0.04429  0.00319
     447      -22989.           -0.02998  0.99720  0.06848
             -0.11989E+06        0.00265 -0.06843  0.99765
             -0.64463E+07        0.99955  0.03010 -0.00059
     448      -7984.8           -0.00232  0.01822  0.99983
              -64435.           -0.03295  0.99929 -0.01828
             -0.61436E+07        0.99945  0.03299  0.00172
     449      -22755.           -0.03515  0.99416  0.10203
              -60296.            0.00314 -0.10198  0.99478
             -0.56396E+07        0.99938  0.03529  0.00046
     450      -29057.           -0.04322  0.96142  0.27166
              -39596.            0.01073 -0.27145  0.96239
             -0.51806E+07        0.99901  0.04451  0.00142
     451      -22266.           -0.05738  0.99200  0.11247
              -58152.            0.00515 -0.11236  0.99365
             -0.45950E+07        0.99834  0.05760  0.00134
     452      -28611.           -0.07814  0.98821  0.13163
              -64569.            0.00831 -0.13138  0.99130
             -0.39308E+07        0.99691  0.07855  0.00205
     453      -34373.           -0.11076  0.98545  0.12892
              -83127.            0.01173 -0.12841  0.99165
             -0.31549E+07        0.99378  0.11135  0.00266
     454      -40757.           -0.16796  0.97664  0.13403
             -0.10151E+06        0.01887 -0.13275  0.99097
             -0.23006E+07        0.98561  0.16897  0.00386
     455      -27869.           -0.29047  0.95037  0.11149
             -0.12315E+06        0.02735 -0.10822  0.99375
             -0.14161E+07        0.95649  0.29170  0.00544
     456       94837.           -0.61681  0.78513  0.05581
             -0.14169E+06        0.03229 -0.04560  0.99844
             -0.66117E+06        0.78645  0.61765  0.00277
     457      0.56062E+06        0.93357 -0.35807 -0.01519
             -0.15386E+06        0.02692  0.02781  0.99925
             -0.35601E+06        0.35738  0.93328 -0.03560
     458      0.10652E+07        0.98860 -0.15045 -0.00549
             -0.15413E+06        0.01586  0.06787  0.99757
             -0.29836E+06        0.14971  0.98629 -0.06948
     459      0.12971E+07        0.99902 -0.04434 -0.00152
             -0.13489E+06        0.00490  0.07613  0.99709
             -0.26661E+06        0.04410  0.99611 -0.07627

          ***** POST1 NODAL STRESS PRINCIPAL DIRECTIONS *****

  LOAD STEP     1  SUBSTEP=     1
  TIME=    1.0000         LOAD CASE=  0

  NODE      PRINCIPAL STRESS     DIRECTION VECTOR (X,Y,Z)
             (S1,S2,S3)
     460      0.11870E+07        0.99898  0.04515  0.00150
             -0.10614E+06       -0.00478  0.07274  0.99734
             -0.20619E+06       -0.04492  0.99633 -0.07288
     461      0.78786E+06        0.98647  0.16388  0.00380
              -41477.           -0.01166  0.04704  0.99883
             -0.12515E+06       -0.16351  0.98536 -0.04831
     462      0.34326E+06        0.93392  0.35748 -0.00178
               13970.           -0.35694  0.93221 -0.05989
              -20304.           -0.01975  0.05656  0.99820
     463      0.22782E+06       -0.61432  0.78885  0.01839
               40180.            0.78887  0.61349  0.03635
              -46115.           -0.01739 -0.03684  0.99917
     464      0.30760E+06        0.41100  0.91080  0.03907
               36842.            0.00868 -0.04676  0.99887
              -33412.            0.91159 -0.41020 -0.02712
     465      0.10188E+07        0.18787  0.98201 -0.01924
              -63004.            0.97864 -0.18882 -0.08132
             -0.16970E+06        0.08349  0.00355  0.99650
     466      0.12734E+07        0.07099  0.99720  0.02352
               59939.            0.01604 -0.02472  0.99957
             -0.32168E+06        0.99735 -0.07059 -0.01775
     467      0.25863E+07        0.05494  0.99830 -0.01938
             -0.14126E+06        0.99418 -0.05649 -0.09168
             -0.67723E+06        0.09262  0.01423  0.99560
     468      0.14168E+07       -0.12956  0.98518  0.11242
              0.52866E+06        0.06125 -0.10521  0.99256
             -0.10571E+07        0.98968  0.13549 -0.04671
     469      0.47065E+07        0.00529  0.99981 -0.01866
               77891.            0.99667 -0.00679 -0.08129
             -0.24262E+07        0.08140  0.01817  0.99652
     470      0.25568E+07        0.04669  0.01375  0.99881
             -0.56922E+06       -0.65707  0.75356  0.02034
             -0.54735E+07        0.75238  0.65724 -0.04422
     471      0.92125E+07       -0.08307  0.99629  0.02261
             -0.12973E+07        0.99008  0.08509 -0.11183
             -0.76152E+07        0.11333 -0.01309  0.99347
     472      0.53507E+07        0.88422 -0.45580  0.10203
             -0.20159E+06       -0.08437  0.05900  0.99469
             -0.65217E+08        0.45940  0.88813 -0.01371
     473      0.17859E+08       -0.00692 -0.00000  0.99998
             -0.28530E+08        0.00000  1.00000  0.00000
             -0.12266E+09        0.99998 -0.00000  0.00692
     474      0.53507E+07        0.88422  0.45580  0.10203
             -0.20159E+06       -0.08437 -0.05900  0.99469
             -0.65217E+08       -0.45940  0.88813  0.01371
     475      0.92125E+07        0.08307  0.99629 -0.02261
             -0.12973E+07        0.99008 -0.08509 -0.11183
             -0.76152E+07        0.11333  0.01309  0.99347
     476      0.25568E+07        0.04669 -0.01375  0.99881
             -0.56922E+06        0.65707  0.75356 -0.02034
             -0.54735E+07        0.75238 -0.65724 -0.04422

          ***** POST1 NODAL STRESS PRINCIPAL DIRECTIONS *****

  LOAD STEP     1  SUBSTEP=     1
  TIME=    1.0000         LOAD CASE=  0

  NODE      PRINCIPAL STRESS     DIRECTION VECTOR (X,Y,Z)
             (S1,S2,S3)
     477      0.47065E+07       -0.00529  0.99981  0.01866
               77891.            0.99667  0.00679 -0.08129
             -0.24262E+07        0.08140 -0.01817  0.99652
     478      0.14168E+07        0.12956  0.98518 -0.11242
              0.52866E+06        0.06125  0.10521  0.99256
             -0.10571E+07        0.98968 -0.13549 -0.04671
     479      0.25863E+07       -0.05494  0.99830  0.01938
             -0.14126E+06        0.99418  0.05649 -0.09168
             -0.67723E+06        0.09262 -0.01423  0.99560
     480      0.12734E+07       -0.07099  0.99720 -0.02352
               59939.            0.01604  0.02472  0.99957
             -0.32168E+06        0.99735  0.07059 -0.01775
     481      0.10188E+07       -0.18787  0.98201  0.01924
              -63004.            0.97864  0.18882 -0.08132
             -0.16970E+06        0.08349 -0.00355  0.99650
     482      0.30760E+06       -0.41100  0.91080 -0.03907
               36842.            0.00868  0.04676  0.99887
              -33412.            0.91159  0.41020 -0.02712
     483     -0.46314E+06        0.32585  0.94020  0.09927
             -0.16440E+07        0.00000 -0.10500  0.99447
             -0.11585E+08        0.94542 -0.32404 -0.03421
     484      0.34326E+06        0.93392 -0.35748 -0.00178
               13970.            0.35694  0.93221  0.05989
              -20304.           -0.01975 -0.05656  0.99820
     485      0.78786E+06        0.98647 -0.16388  0.00380
              -41477.           -0.01166 -0.04704  0.99883
             -0.12515E+06        0.16351  0.98536  0.04831
     486      0.11870E+07        0.99898 -0.04515  0.00150
             -0.10614E+06       -0.00478 -0.07274  0.99734
             -0.20619E+06        0.04492  0.99633  0.07288
     487      0.12971E+07        0.99902  0.04434 -0.00152
             -0.13489E+06        0.00490 -0.07613  0.99709
             -0.26661E+06       -0.04410  0.99611  0.07627
     488      0.10652E+07        0.98860  0.15045 -0.00549
             -0.15413E+06        0.01586 -0.06787  0.99757
             -0.29836E+06       -0.14971  0.98629  0.06948
     489      0.56062E+06        0.93357  0.35807 -0.01519
             -0.15386E+06        0.02692 -0.02781  0.99925
             -0.35601E+06       -0.35738  0.93328  0.03560
     490       94837.            0.61681  0.78513 -0.05581
             -0.14169E+06        0.03229  0.04560  0.99844
             -0.66117E+06        0.78645 -0.61765  0.00277
     491      -27869.            0.29047  0.95037 -0.11149
             -0.12315E+06        0.02735  0.10822  0.99375
             -0.14161E+07        0.95649 -0.29170  0.00544
     492      -40757.            0.16796  0.97664 -0.13403
             -0.10151E+06        0.01887  0.13275  0.99097
             -0.23006E+07        0.98561 -0.16897  0.00386
     493      -34373.            0.11076  0.98545 -0.12892
              -83127.            0.01173  0.12841  0.99165
             -0.31549E+07        0.99378 -0.11135  0.00266

          ***** POST1 NODAL STRESS PRINCIPAL DIRECTIONS *****

  LOAD STEP     1  SUBSTEP=     1
  TIME=    1.0000         LOAD CASE=  0

  NODE      PRINCIPAL STRESS     DIRECTION VECTOR (X,Y,Z)
             (S1,S2,S3)
     494      -28611.            0.07814  0.98821 -0.13163
              -64569.            0.00831  0.13138  0.99130
             -0.39308E+07        0.99691 -0.07855  0.00205
     495      -22266.            0.05738  0.99200 -0.11247
              -58152.            0.00515  0.11236  0.99365
             -0.45950E+07        0.99834 -0.05760  0.00134
     496      -29057.            0.04322  0.96142 -0.27166
              -39596.            0.01073  0.27145  0.96239
             -0.51806E+07        0.99901 -0.04451  0.00142
     497      -22755.            0.03515  0.99416 -0.10203
              -60296.            0.00314  0.10198  0.99478
             -0.56396E+07        0.99938 -0.03529  0.00046
     498      -7984.8           -0.00232 -0.01822  0.99983
              -64435.            0.03295  0.99929  0.01828
             -0.61436E+07        0.99945 -0.03299  0.00172
     499      -22989.            0.02998  0.99720 -0.06848
             -0.11989E+06        0.00265  0.06843  0.99765
             -0.64463E+07        0.99955 -0.03010 -0.00059
     500      0.10006E+06       -0.00273  0.01050  0.99994
             -0.18585E+06        0.04432  0.99896 -0.01036
             -0.72624E+07        0.99901 -0.04429  0.00319
     501       15960.            0.04860  0.99801 -0.04028
             -0.33770E+06        0.00249  0.04021  0.99919
             -0.74948E+07        0.99882 -0.04866 -0.00053
     502      0.60446E+06        0.00034  0.00829  0.99997
             -0.49160E+06        0.10476  0.99446 -0.00828
             -0.10759E+08        0.99450 -0.10476  0.00053
     503     -0.14455E+07        0.32799  0.93234  0.15223
             -0.22239E+07        0.00000 -0.16114  0.98693
             -0.86818E+07        0.94468 -0.32370 -0.05285
     504     -0.12989E+07        0.30400  0.94001  0.15481
             -0.18895E+07       -0.00000 -0.16250  0.98671
             -0.76901E+07        0.95267 -0.29996 -0.04940
     505     -0.13980E+07        0.28518  0.94133  0.18045
             -0.18782E+07        0.00000 -0.18827  0.98212
             -0.73023E+07        0.95847 -0.28008 -0.05369
     506     -0.14595E+07        0.25867  0.94435  0.20321
             -0.18382E+07       -0.00000 -0.21037  0.97762
             -0.71198E+07        0.96597 -0.25288 -0.05442
     507     -0.15563E+07        0.22868  0.94382  0.23854
             -0.18438E+07       -0.00000 -0.24504  0.96951
             -0.70538E+07        0.97350 -0.22171 -0.05603
     508     -0.16497E+07        0.19371  0.93734  0.28960
             -0.18520E+07       -0.00000 -0.29520  0.95544
             -0.70403E+07        0.98106 -0.18508 -0.05718
     509     -0.17386E+07        0.15515  0.91556  0.37106
             -0.18665E+07       -0.00000 -0.37561  0.92678
             -0.70520E+07        0.98789 -0.14379 -0.05827
     510     -0.18101E+07        0.11477  0.85152  0.51161
             -0.18794E+07       -0.00000 -0.51501  0.85718
             -0.70703E+07        0.99339 -0.09838 -0.05911

          ***** POST1 NODAL STRESS PRINCIPAL DIRECTIONS *****

  LOAD STEP     1  SUBSTEP=     1
  TIME=    1.0000         LOAD CASE=  0

  NODE      PRINCIPAL STRESS     DIRECTION VECTOR (X,Y,Z)
             (S1,S2,S3)
     511     -0.18568E+07        0.07782  0.64034  0.76414
             -0.18885E+07        0.00000  0.76647 -0.64228
             -0.70850E+07        0.99697 -0.04998 -0.05965
     512     -0.18730E+07        0.05983  0.00000  0.99821
             -0.18917E+07        0.00000  1.00000 -0.00000
             -0.70905E+07        0.99821 -0.00000 -0.05983
     513     -0.18568E+07        0.07782 -0.64034  0.76414
             -0.18885E+07       -0.00000  0.76647  0.64228
             -0.70850E+07        0.99697  0.04998 -0.05965
     514     -0.18101E+07       -0.11477  0.85152 -0.51161
             -0.18794E+07       -0.00000  0.51501  0.85718
             -0.70703E+07        0.99339  0.09838 -0.05911
     515     -0.17386E+07       -0.15515  0.91556 -0.37106
             -0.18665E+07       -0.00000  0.37561  0.92678
             -0.70520E+07        0.98789  0.14379 -0.05827
     516     -0.16497E+07       -0.19371  0.93734 -0.28960
             -0.18520E+07       -0.00000  0.29520  0.95544
             -0.70403E+07        0.98106  0.18508 -0.05718
     517     -0.15563E+07       -0.22868  0.94382 -0.23854
             -0.18438E+07       -0.00000  0.24504  0.96951
             -0.70538E+07        0.97350  0.22171 -0.05603
     518     -0.14595E+07       -0.25867  0.94435 -0.20321
             -0.18382E+07       -0.00000  0.21037  0.97762
             -0.71198E+07        0.96597  0.25288 -0.05442
     519     -0.13980E+07       -0.28518  0.94133 -0.18045
             -0.18782E+07       -0.00000  0.18827  0.98212
             -0.73023E+07        0.95847  0.28008 -0.05369
     520     -0.12989E+07       -0.30400  0.94001 -0.15481
             -0.18895E+07       -0.00000  0.16250  0.98671
             -0.76901E+07        0.95267  0.29996 -0.04940
     521     -0.14455E+07       -0.32799  0.93234 -0.15223
             -0.22239E+07        0.00000  0.16114  0.98693
             -0.86818E+07        0.94468  0.32370 -0.05285
     522      0.52889E+06        0.00023 -0.00484  0.99999
             -0.12728E+07       -0.16725  0.98590  0.00481
             -0.95134E+07        0.98591  0.16725  0.00058
     523      0.38561E+06        0.00222 -0.00651  0.99998
             -0.15671E+07       -0.24769  0.96881  0.00686
             -0.85336E+07        0.96884  0.24770 -0.00054
     524      0.46631E+06        0.00126 -0.00272  1.00000
             -0.17489E+07       -0.24243  0.97016  0.00295
             -0.82078E+07        0.97017  0.24243 -0.00056
     525      0.44037E+06        0.00102 -0.00023  1.00000
             -0.18173E+07       -0.22634  0.97405  0.00045
             -0.80456E+07        0.97405  0.22634 -0.00094
     526      0.45207E+06        0.00102 -0.00036  1.00000
             -0.19007E+07       -0.19907  0.97999  0.00056
             -0.80142E+07        0.97999  0.19907 -0.00093
     527      0.45507E+06        0.00097  0.00030  1.00000
             -0.19698E+07       -0.16614  0.98610 -0.00014
             -0.80360E+07        0.98610  0.16614 -0.00100

          ***** POST1 NODAL STRESS PRINCIPAL DIRECTIONS *****

  LOAD STEP     1  SUBSTEP=     1
  TIME=    1.0000         LOAD CASE=  0

  NODE      PRINCIPAL STRESS     DIRECTION VECTOR (X,Y,Z)
             (S1,S2,S3)
     528      0.46180E+06        0.00097  0.00027  1.00000
             -0.20326E+07       -0.12839  0.99172 -0.00015
             -0.80826E+07        0.99172  0.12839 -0.00100
     529      0.46682E+06        0.00098  0.00029  1.00000
             -0.20813E+07       -0.08740  0.99617 -0.00020
             -0.81298E+07        0.99617  0.08740 -0.00100
     530      0.47038E+06        0.00099  0.00015  1.00000
             -0.21127E+07       -0.04423  0.99902 -0.00011
             -0.81636E+07        0.99902  0.04423 -0.00100
     531      0.47160E+06        0.00099  0.00000  1.00000
             -0.21235E+07        0.00000  1.00000 -0.00000
             -0.81758E+07        1.00000 -0.00000 -0.00099
     532      0.47038E+06        0.00099 -0.00015  1.00000
             -0.21127E+07        0.04423  0.99902  0.00011
             -0.81636E+07        0.99902 -0.04423 -0.00100
     533      0.46682E+06        0.00098 -0.00029  1.00000
             -0.20813E+07        0.08740  0.99617  0.00020
             -0.81298E+07        0.99617 -0.08740 -0.00100
     534      0.46180E+06        0.00097 -0.00027  1.00000
             -0.20326E+07        0.12839  0.99172  0.00015
             -0.80826E+07        0.99172 -0.12839 -0.00100
     535      0.45507E+06        0.00097 -0.00030  1.00000
             -0.19698E+07        0.16614  0.98610  0.00014
             -0.80360E+07        0.98610 -0.16614 -0.00100
     536      0.45207E+06        0.00102  0.00036  1.00000
             -0.19007E+07        0.19907  0.97999 -0.00056
             -0.80142E+07        0.97999 -0.19907 -0.00093
     537      0.44037E+06        0.00102  0.00023  1.00000
             -0.18173E+07        0.22634  0.97405 -0.00045
             -0.80456E+07        0.97405 -0.22634 -0.00094
     538      0.46631E+06        0.00126  0.00272  1.00000
             -0.17489E+07        0.24243  0.97016 -0.00295
             -0.82078E+07        0.97017 -0.24243 -0.00056
     539      0.38561E+06        0.00222  0.00651  0.99998
             -0.15671E+07        0.24769  0.96881 -0.00686
             -0.85336E+07        0.96884 -0.24770 -0.00054
     540      0.52889E+06        0.00023  0.00484  0.99999
             -0.12728E+07        0.16725  0.98590 -0.00481
             -0.95134E+07        0.98591 -0.16725  0.00058
     541       58127.           -0.11309  0.99302  0.03335
             -0.26997E+06        0.00422 -0.03309  0.99944
             -0.79454E+07        0.99358  0.11317 -0.00045
     542     -0.15805E+06       -0.00363  0.02766  0.99961
             -0.37918E+06       -0.17788  0.98366 -0.02787
             -0.79425E+07        0.98405  0.17791 -0.00135
     543     -0.22636E+06        0.00162 -0.00109  1.00000
             -0.57421E+06       -0.20321  0.97913  0.00140
             -0.77002E+07        0.97913  0.20321 -0.00137
     544     -0.18078E+06        0.00249 -0.00483  0.99999
             -0.73679E+06       -0.19656  0.98048  0.00522
             -0.76531E+07        0.98049  0.19657 -0.00149

          ***** POST1 NODAL STRESS PRINCIPAL DIRECTIONS *****

  LOAD STEP     1  SUBSTEP=     1
  TIME=    1.0000         LOAD CASE=  0

  NODE      PRINCIPAL STRESS     DIRECTION VECTOR (X,Y,Z)
             (S1,S2,S3)
     545     -0.18996E+06        0.00175 -0.00055  1.00000
             -0.80476E+06       -0.17674  0.98426  0.00085
             -0.76599E+07        0.98426  0.17674 -0.00162
     546     -0.18513E+06        0.00192 -0.00163  1.00000
             -0.85642E+06       -0.14830  0.98894  0.00189
             -0.77200E+07        0.98894  0.14830 -0.00165
     547     -0.18759E+06        0.00176 -0.00051  1.00000
             -0.88559E+06       -0.11478  0.99339  0.00071
             -0.77918E+07        0.99339  0.11478 -0.00169
     548     -0.18819E+06        0.00174 -0.00047  1.00000
             -0.90504E+06       -0.07804  0.99695  0.00061
             -0.78590E+07        0.99695  0.07804 -0.00170
     549     -0.18930E+06        0.00172 -0.00016  1.00000
             -0.91531E+06       -0.03945  0.99922  0.00022
             -0.79048E+07        0.99922  0.03945 -0.00171
     550     -0.18953E+06        0.00171  0.00000  1.00000
             -0.91874E+06        0.00000  1.00000 -0.00000
             -0.79211E+07        1.00000 -0.00000 -0.00171
     551     -0.18930E+06        0.00172  0.00016  1.00000
             -0.91531E+06        0.03945  0.99922 -0.00022
             -0.79048E+07        0.99922 -0.03945 -0.00171
     552     -0.18819E+06        0.00174  0.00047  1.00000
             -0.90504E+06        0.07804  0.99695 -0.00061
             -0.78590E+07        0.99695 -0.07804 -0.00170
     553     -0.18759E+06        0.00176  0.00051  1.00000
             -0.88559E+06        0.11478  0.99339 -0.00071
             -0.77918E+07        0.99339 -0.11478 -0.00169
     554     -0.18513E+06        0.00192  0.00163  1.00000
             -0.85642E+06        0.14830  0.98894 -0.00189
             -0.77200E+07        0.98894 -0.14830 -0.00165
     555     -0.18996E+06        0.00175  0.00055  1.00000
             -0.80476E+06        0.17674  0.98426 -0.00085
             -0.76599E+07        0.98426 -0.17674 -0.00162
     556     -0.18078E+06        0.00249  0.00483  0.99999
             -0.73679E+06        0.19656  0.98048 -0.00522
             -0.76531E+07        0.98049 -0.19657 -0.00149
     557     -0.22636E+06        0.00162  0.00109  1.00000
             -0.57421E+06        0.20321  0.97913 -0.00140
             -0.77002E+07        0.97913 -0.20321 -0.00137
     558     -0.15805E+06       -0.00363 -0.02766  0.99961
             -0.37918E+06        0.17788  0.98366  0.02787
             -0.79425E+07        0.98405 -0.17791 -0.00135
     559       58127.            0.11309  0.99302 -0.03335
             -0.26997E+06        0.00422  0.03309  0.99944
             -0.79454E+07        0.99358 -0.11317 -0.00045
     560      0.10168E+06       -0.00309 -0.00129  0.99999
             -0.14064E+06       -0.07819  0.99694  0.00104
             -0.75472E+07        0.99693  0.07819  0.00318
     561       55775.           -0.00450  0.01369  0.99990
             -0.26663E+06       -0.14002  0.99005 -0.01418
             -0.77504E+07        0.99014  0.14007  0.00254

          ***** POST1 NODAL STRESS PRINCIPAL DIRECTIONS *****

  LOAD STEP     1  SUBSTEP=     1
  TIME=    1.0000         LOAD CASE=  0

  NODE      PRINCIPAL STRESS     DIRECTION VECTOR (X,Y,Z)
             (S1,S2,S3)
     562       70021.           -0.00414  0.01150  0.99993
             -0.42433E+06       -0.17037  0.98531 -0.01204
             -0.78397E+07        0.98537  0.17041  0.00212
     563       61004.           -0.00338  0.00774  0.99996
             -0.52432E+06       -0.17560  0.98443 -0.00821
             -0.79065E+07        0.98446  0.17562  0.00197
     564       69371.           -0.00282  0.00571  0.99998
             -0.58944E+06       -0.16270  0.98666 -0.00609
             -0.80080E+07        0.98667  0.16272  0.00186
     565       71868.           -0.00253  0.00514  0.99998
             -0.62229E+06       -0.13908  0.99027 -0.00545
             -0.81268E+07        0.99028  0.13909  0.00179
     566       75168.           -0.00220  0.00390  0.99999
             -0.63918E+06       -0.10874  0.99406 -0.00412
             -0.82443E+07        0.99407  0.10875  0.00176
     567       77263.           -0.00196  0.00278  0.99999
             -0.64635E+06       -0.07437  0.99723 -0.00291
             -0.83426E+07        0.99723  0.07437  0.00175
     568       78639.           -0.00179  0.00142  1.00000
             -0.64893E+06       -0.03770  0.99929 -0.00148
             -0.84075E+07        0.99929  0.03770  0.00174
     569       79099.           -0.00174  0.00000  1.00000
             -0.64950E+06        0.00000  1.00000 -0.00000
             -0.84301E+07        1.00000 -0.00000  0.00174
     570       78639.           -0.00179 -0.00142  1.00000
             -0.64893E+06        0.03770  0.99929  0.00148
             -0.84075E+07        0.99929 -0.03770  0.00174
     571       77263.           -0.00196 -0.00278  0.99999
             -0.64635E+06        0.07437  0.99723  0.00291
             -0.83426E+07        0.99723 -0.07437  0.00175
     572       75168.           -0.00220 -0.00390  0.99999
             -0.63918E+06        0.10874  0.99406  0.00412
             -0.82443E+07        0.99407 -0.10875  0.00176
     573       71868.           -0.00253 -0.00514  0.99998
             -0.62229E+06        0.13908  0.99027  0.00545
             -0.81268E+07        0.99028 -0.13909  0.00179
     574       69371.           -0.00282 -0.00571  0.99998
             -0.58944E+06        0.16270  0.98666  0.00609
             -0.80080E+07        0.98667 -0.16272  0.00186
     575       61004.           -0.00338 -0.00774  0.99996
             -0.52432E+06        0.17560  0.98443  0.00821
             -0.79065E+07        0.98446 -0.17562  0.00197
     576       70021.           -0.00414 -0.01150  0.99993
             -0.42433E+06        0.17037  0.98531  0.01204
             -0.78397E+07        0.98537 -0.17041  0.00212
     577       55775.           -0.00450 -0.01369  0.99990
             -0.26663E+06        0.14002  0.99005  0.01418
             -0.77504E+07        0.99014 -0.14007  0.00254
     578      0.10168E+06       -0.00309  0.00129  0.99999
             -0.14064E+06        0.07819  0.99694 -0.00104
             -0.75472E+07        0.99693 -0.07819  0.00318

          ***** POST1 NODAL STRESS PRINCIPAL DIRECTIONS *****

  LOAD STEP     1  SUBSTEP=     1
  TIME=    1.0000         LOAD CASE=  0

  NODE      PRINCIPAL STRESS     DIRECTION VECTOR (X,Y,Z)
             (S1,S2,S3)
     579       39649.           -0.06748  0.99534  0.06885
              -48701.            0.00523 -0.06866  0.99763
             -0.68558E+07        0.99771  0.06768 -0.00057
     580       905.99           -0.10977  0.91753  0.38222
              -14909.            0.04535 -0.37952  0.92407
             -0.72911E+07        0.99292  0.11877  0.00005
     581      -15541.           -0.14995  0.98036  0.12807
              -43389.            0.01957 -0.12657  0.99176
             -0.75607E+07        0.98850  0.15122 -0.00021
     582      -32318.           -0.01926  0.11978  0.99261
              -51505.           -0.15970  0.97968 -0.12132
             -0.78057E+07        0.98698  0.16085 -0.00025
     583      -34489.           -0.01127  0.07515  0.99711
              -63227.           -0.15271  0.98534 -0.07599
             -0.80196E+07        0.98821  0.15312 -0.00037
     584      -31018.           -0.00521  0.04190  0.99911
              -65462.           -0.13308  0.99021 -0.04222
             -0.82206E+07        0.99109  0.13318 -0.00042
     585      -29651.           -0.00404  0.04256  0.99909
              -58374.           -0.10526  0.99353 -0.04274
             -0.83952E+07        0.99444  0.10534 -0.00047
     586      -28230.           -0.00225  0.03780  0.99928
              -49182.           -0.07253  0.99665 -0.03786
             -0.85321E+07        0.99736  0.07256 -0.00050
     587      -27516.           -0.00057  0.02940  0.99957
              -41679.           -0.03693  0.99889 -0.02940
             -0.86194E+07        0.99932  0.03693 -0.00051
     588      -27265.            0.00052  0.00000  1.00000
              -38870.            0.00000  1.00000 -0.00000
             -0.86494E+07        1.00000 -0.00000 -0.00052
     589      -27516.           -0.00057 -0.02940  0.99957
              -41679.            0.03693  0.99889  0.02940
             -0.86194E+07        0.99932 -0.03693 -0.00051
     590      -28230.           -0.00225 -0.03780  0.99928
              -49182.            0.07253  0.99665  0.03786
             -0.85321E+07        0.99736 -0.07256 -0.00050
     591      -29651.           -0.00404 -0.04256  0.99909
              -58374.            0.10526  0.99353  0.04274
             -0.83952E+07        0.99444 -0.10534 -0.00047
     592      -31018.           -0.00521 -0.04190  0.99911
              -65462.            0.13308  0.99021  0.04222
             -0.82206E+07        0.99109 -0.13318 -0.00042
     593      -34489.           -0.01127 -0.07515  0.99711
              -63227.            0.15271  0.98534  0.07599
             -0.80196E+07        0.98821 -0.15312 -0.00037
     594      -32318.           -0.01926 -0.11978  0.99261
              -51505.            0.15970  0.97968  0.12132
             -0.78057E+07        0.98698 -0.16085 -0.00025
     595      -15541.            0.14995  0.98036 -0.12807
              -43389.            0.01957  0.12657  0.99176
             -0.75607E+07        0.98850 -0.15122 -0.00021

          ***** POST1 NODAL STRESS PRINCIPAL DIRECTIONS *****

  LOAD STEP     1  SUBSTEP=     1
  TIME=    1.0000         LOAD CASE=  0

  NODE      PRINCIPAL STRESS     DIRECTION VECTOR (X,Y,Z)
             (S1,S2,S3)
     596       905.99            0.10977  0.91753 -0.38222
              -14909.            0.04535  0.37952  0.92407
             -0.72911E+07        0.99292 -0.11877  0.00005
     597       39649.            0.06748  0.99534 -0.06885
              -48701.            0.00523  0.06866  0.99763
             -0.68558E+07        0.99771 -0.06768 -0.00057
     598       25580.           -0.06519  0.99098  0.11706
               6222.7            0.00622 -0.11691  0.99312
             -0.64696E+07        0.99785  0.06547  0.00146
     599       86225.           -0.11599  0.99122  0.06344
               9899.0            0.00633 -0.06313  0.99799
             -0.69468E+07        0.99323  0.11616  0.00105
     600      0.15792E+06       -0.14620  0.98856  0.03713
               9750.0            0.00447 -0.03687  0.99931
             -0.73889E+07        0.98925  0.14626  0.00097
     601      0.21844E+06       -0.15684  0.98738  0.02186
               7333.3            0.00264 -0.02172  0.99976
             -0.77825E+07        0.98762  0.15686  0.00080
     602      0.26858E+06       -0.15077  0.98845  0.01554
               8656.6            0.00167 -0.01547  0.99988
             -0.81292E+07        0.98857  0.15078  0.00068
     603      0.31137E+06       -0.13239  0.99114  0.01112
               10774.            0.00088 -0.01110  0.99994
             -0.84308E+07        0.99120  0.13239  0.00059
     604      0.34789E+06       -0.10550  0.99439  0.00771
               12944.            0.00028 -0.00772  0.99997
             -0.86804E+07        0.99442  0.10550  0.00053
     605      0.37634E+06       -0.07306  0.99732  0.00489
               14859.           -0.00014 -0.00491  0.99999
             -0.88691E+07        0.99733  0.07306  0.00049
     606      0.39467E+06       -0.03730  0.99930  0.00238
               16078.           -0.00038 -0.00239  1.00000
             -0.89869E+07        0.99930  0.03730  0.00047
     607      0.40096E+06        0.00000  1.00000  0.00000
               16568.           -0.00046 -0.00000  1.00000
             -0.90271E+07        1.00000 -0.00000  0.00046
     608      0.39467E+06        0.03730  0.99930 -0.00238
               16078.           -0.00038  0.00239  1.00000
             -0.89869E+07        0.99930 -0.03730  0.00047
     609      0.37634E+06        0.07306  0.99732 -0.00489
               14859.           -0.00014  0.00491  0.99999
             -0.88691E+07        0.99733 -0.07306  0.00049
     610      0.34789E+06        0.10550  0.99439 -0.00771
               12944.            0.00028  0.00772  0.99997
             -0.86804E+07        0.99442 -0.10550  0.00053
     611      0.31137E+06        0.13239  0.99114 -0.01112
               10774.            0.00088  0.01110  0.99994
             -0.84308E+07        0.99120 -0.13239  0.00059
     612      0.26858E+06        0.15077  0.98845 -0.01554
               8656.6            0.00167  0.01547  0.99988
             -0.81292E+07        0.98857 -0.15078  0.00068

          ***** POST1 NODAL STRESS PRINCIPAL DIRECTIONS *****

  LOAD STEP     1  SUBSTEP=     1
  TIME=    1.0000         LOAD CASE=  0

  NODE      PRINCIPAL STRESS     DIRECTION VECTOR (X,Y,Z)
             (S1,S2,S3)
     613      0.21844E+06        0.15684  0.98738 -0.02186
               7333.3            0.00264  0.02172  0.99976
             -0.77825E+07        0.98762 -0.15686  0.00080
     614      0.15792E+06        0.14620  0.98856 -0.03713
               9750.0            0.00447  0.03687  0.99931
             -0.73889E+07        0.98925 -0.14626  0.00097
     615       86225.            0.11599  0.99122 -0.06344
               9899.0            0.00633  0.06313  0.99799
             -0.69468E+07        0.99323 -0.11616  0.00105
     616       25580.            0.06519  0.99098 -0.11706
               6222.7            0.00622  0.11691  0.99312
             -0.64696E+07        0.99785 -0.06547  0.00146
     617       77363.           -0.07339  0.99630  0.04478
              -20278.            0.00278 -0.04470  0.99900
             -0.60139E+07        0.99730  0.07345  0.00051
     618      0.19567E+06       -0.12487  0.99178  0.02808
              -429.92            0.00298 -0.02793  0.99961
             -0.65917E+07        0.99217  0.12490  0.00053
     619      0.35407E+06       -0.15390  0.98798  0.01443
              -10134.            0.00191 -0.01431  0.99990
             -0.71560E+07        0.98808  0.15391  0.00032
     620      0.49087E+06       -0.16268  0.98664  0.00921
              -5928.1            0.00127 -0.00912  0.99996
             -0.76982E+07        0.98668  0.16269  0.00023
     621      0.60888E+06       -0.15563  0.98779  0.00677
              -6551.2            0.00095 -0.00671  0.99998
             -0.81792E+07        0.98781  0.15564  0.00011
     622      0.70245E+06       -0.13663  0.99061  0.00470
              -4358.3            0.00061 -0.00466  0.99999
             -0.85946E+07        0.99062  0.13663  0.00003
     623      0.77566E+06       -0.10906  0.99403  0.00333
              -2518.3            0.00039 -0.00331  0.99999
             -0.89332E+07        0.99404  0.10906 -0.00003
     624      0.82854E+06       -0.07567  0.99713  0.00210
              -548.82            0.00023 -0.00209  1.00000
             -0.91856E+07        0.99713  0.07567 -0.00007
     625      0.86095E+06       -0.03869  0.99925  0.00102
               710.49            0.00013 -0.00102  1.00000
             -0.93418E+07        0.99925  0.03869 -0.00009
     626      0.87192E+06        0.00000  1.00000 -0.00000
               1080.6            0.00009  0.00000  1.00000
             -0.93946E+07        1.00000 -0.00000 -0.00009
     627      0.86095E+06        0.03869  0.99925 -0.00102
               710.49            0.00013  0.00102  1.00000
             -0.93418E+07        0.99925 -0.03869 -0.00009
     628      0.82854E+06        0.07567  0.99713 -0.00210
              -548.82            0.00023  0.00209  1.00000
             -0.91856E+07        0.99713 -0.07567 -0.00007
     629      0.77566E+06        0.10906  0.99403 -0.00333
              -2518.3            0.00039  0.00331  0.99999
             -0.89332E+07        0.99404 -0.10906 -0.00003

          ***** POST1 NODAL STRESS PRINCIPAL DIRECTIONS *****

  LOAD STEP     1  SUBSTEP=     1
  TIME=    1.0000         LOAD CASE=  0

  NODE      PRINCIPAL STRESS     DIRECTION VECTOR (X,Y,Z)
             (S1,S2,S3)
     630      0.70245E+06        0.13663  0.99061 -0.00470
              -4358.3            0.00061  0.00466  0.99999
             -0.85946E+07        0.99062 -0.13663  0.00003
     631      0.60888E+06        0.15563  0.98779 -0.00677
              -6551.2            0.00095  0.00671  0.99998
             -0.81792E+07        0.98781 -0.15564  0.00011
     632      0.49087E+06        0.16268  0.98664 -0.00921
              -5928.1            0.00127  0.00912  0.99996
             -0.76982E+07        0.98668 -0.16269  0.00023
     633      0.35407E+06        0.15390  0.98798 -0.01443
              -10134.            0.00191  0.01431  0.99990
             -0.71560E+07        0.98808 -0.15391  0.00032
     634      0.19567E+06        0.12487  0.99178 -0.02808
              -429.92            0.00298  0.02793  0.99961
             -0.65917E+07        0.99217 -0.12490  0.00053
     635       77363.            0.07339  0.99630 -0.04478
              -20278.            0.00278  0.04470  0.99900
             -0.60139E+07        0.99730 -0.07345  0.00051
     636       98409.           -0.08819  0.99551  0.03433
              -13360.            0.00189 -0.03429  0.99941
             -0.55751E+07        0.99610  0.08820  0.00114
     637      0.28048E+06       -0.14451  0.98928  0.02117
              -5.1155            0.00233 -0.02106  0.99978
             -0.62468E+07        0.98950  0.14452  0.00074
     638      0.50421E+06       -0.17159  0.98509  0.01265
              -2204.9            0.00164 -0.01255  0.99992
             -0.69493E+07        0.98517  0.17159  0.00054
     639      0.71016E+06       -0.17730  0.98412  0.00804
              -172.03            0.00107 -0.00797  0.99997
             -0.76334E+07        0.98416  0.17730  0.00036
     640      0.88825E+06       -0.16740  0.98587  0.00584
               552.71            0.00075 -0.00579  0.99998
             -0.82545E+07        0.98589  0.16740  0.00023
     641      0.10324E+07       -0.14602  0.98927  0.00415
               2829.5            0.00048 -0.00413  0.99999
             -0.87946E+07        0.98928  0.14602  0.00013
     642      0.11445E+07       -0.11625  0.99322  0.00291
               5207.6            0.00028 -0.00290  1.00000
             -0.92364E+07        0.99322  0.11625  0.00006
     643      0.12251E+07       -0.08060  0.99674  0.00185
               7471.9            0.00013 -0.00185  1.00000
             -0.95656E+07        0.99675  0.08060  0.00002
     644      0.12738E+07       -0.04121  0.99915  0.00091
               9178.9            0.00005 -0.00091  1.00000
             -0.97693E+07        0.99915  0.04121 -0.00001
     645      0.12900E+07        0.00000  1.00000 -0.00000
               10056.            0.00002  0.00000  1.00000
             -0.98385E+07        1.00000 -0.00000 -0.00002
     646      0.12738E+07        0.04121  0.99915 -0.00091
               9178.9            0.00005  0.00091  1.00000
             -0.97693E+07        0.99915 -0.04121 -0.00001

          ***** POST1 NODAL STRESS PRINCIPAL DIRECTIONS *****

  LOAD STEP     1  SUBSTEP=     1
  TIME=    1.0000         LOAD CASE=  0

  NODE      PRINCIPAL STRESS     DIRECTION VECTOR (X,Y,Z)
             (S1,S2,S3)
     647      0.12251E+07        0.08060  0.99674 -0.00185
               7471.9            0.00013  0.00185  1.00000
             -0.95656E+07        0.99675 -0.08060  0.00002
     648      0.11445E+07        0.11625  0.99322 -0.00291
               5207.6            0.00028  0.00290  1.00000
             -0.92364E+07        0.99322 -0.11625  0.00006
     649      0.10324E+07        0.14602  0.98927 -0.00415
               2829.5            0.00048  0.00413  0.99999
             -0.87946E+07        0.98928 -0.14602  0.00013
     650      0.88825E+06        0.16740  0.98587 -0.00584
               552.71            0.00075  0.00579  0.99998
             -0.82545E+07        0.98589 -0.16740  0.00023
     651      0.71016E+06        0.17730  0.98412 -0.00804
              -172.03            0.00107  0.00797  0.99997
             -0.76334E+07        0.98416 -0.17730  0.00036
     652      0.50421E+06        0.17159  0.98509 -0.01265
              -2204.9            0.00164  0.01255  0.99992
             -0.69493E+07        0.98517 -0.17159  0.00054
     653      0.28048E+06        0.14451  0.98928 -0.02117
              -5.1155            0.00233  0.02106  0.99978
             -0.62468E+07        0.98950 -0.14452  0.00074
     654       98409.            0.08819  0.99551 -0.03433
              -13360.            0.00189  0.03429  0.99941
             -0.55751E+07        0.99610 -0.08820  0.00114
     655      0.13497E+06       -0.11127  0.99324  0.03307
              -20622.            0.00255 -0.03300  0.99945
             -0.50730E+07        0.99379  0.11130  0.00114
     656      0.36952E+06       -0.17290  0.98475  0.01918
              -1348.4            0.00266 -0.01901  0.99982
             -0.58856E+07        0.98494  0.17291  0.00066
     657      0.65285E+06       -0.19765  0.98021  0.01111
              -7159.2            0.00184 -0.01096  0.99994
             -0.67319E+07        0.98027  0.19766  0.00037
     658      0.91229E+06       -0.19915  0.97994  0.00718
              -3010.6            0.00126 -0.00708  0.99997
             -0.75677E+07        0.97997  0.19916  0.00017
     659      0.11422E+07       -0.18525  0.98268  0.00526
              -2444.9            0.00095 -0.00518  0.99999
             -0.83365E+07        0.98269  0.18526  0.00003
     660      0.13329E+07       -0.16027  0.98707  0.00372
               564.17            0.00067 -0.00366  0.99999
             -0.90146E+07        0.98707  0.16027 -0.00007
     661      0.14846E+07       -0.12707  0.99189  0.00263
               3395.2            0.00047 -0.00259  1.00000
             -0.95753E+07        0.99189  0.12707 -0.00014
     662      0.15947E+07       -0.08794  0.99612  0.00165
               6928.0            0.00034 -0.00163  1.00000
             -0.99971E+07        0.99613  0.08794 -0.00019
     663      0.16622E+07       -0.04494  0.99899  0.00080
               9109.7            0.00025 -0.00079  1.00000
             -0.10259E+08        0.99899  0.04494 -0.00022

          ***** POST1 NODAL STRESS PRINCIPAL DIRECTIONS *****

  LOAD STEP     1  SUBSTEP=     1
  TIME=    1.0000         LOAD CASE=  0

  NODE      PRINCIPAL STRESS     DIRECTION VECTOR (X,Y,Z)
             (S1,S2,S3)
     664      0.16853E+07        0.00000  1.00000 -0.00000
               9353.4            0.00021  0.00000  1.00000
             -0.10348E+08        1.00000 -0.00000 -0.00021
     665      0.16622E+07        0.04494  0.99899 -0.00080
               9109.7            0.00025  0.00079  1.00000
             -0.10259E+08        0.99899 -0.04494 -0.00022
     666      0.15947E+07        0.08794  0.99612 -0.00165
               6928.0            0.00034  0.00163  1.00000
             -0.99971E+07        0.99613 -0.08794 -0.00019
     667      0.14846E+07        0.12707  0.99189 -0.00263
               3395.2            0.00047  0.00259  1.00000
             -0.95753E+07        0.99189 -0.12707 -0.00014
     668      0.13329E+07        0.16027  0.98707 -0.00372
               564.17            0.00067  0.00366  0.99999
             -0.90146E+07        0.98707 -0.16027 -0.00007
     669      0.11422E+07        0.18525  0.98268 -0.00526
              -2444.9            0.00095  0.00518  0.99999
             -0.83365E+07        0.98269 -0.18526  0.00003
     670      0.91229E+06        0.19915  0.97994 -0.00718
              -3010.6            0.00126  0.00708  0.99997
             -0.75677E+07        0.97997 -0.19916  0.00017
     671      0.65285E+06        0.19765  0.98021 -0.01111
              -7159.2            0.00184  0.01096  0.99994
             -0.67319E+07        0.98027 -0.19766  0.00037
     672      0.36952E+06        0.17290  0.98475 -0.01918
              -1348.4            0.00266  0.01901  0.99982
             -0.58856E+07        0.98494 -0.17291  0.00066
     673      0.13497E+06        0.11127  0.99324 -0.03307
              -20622.            0.00255  0.03300  0.99945
             -0.50730E+07        0.99379 -0.11130  0.00114
     674      0.17103E+06       -0.14310  0.98919  0.03192
              -22465.            0.00305 -0.03181  0.99949
             -0.45168E+07        0.98970  0.14312  0.00154
     675      0.45653E+06       -0.20956  0.97762  0.01877
              -1336.4            0.00326 -0.01849  0.99982
             -0.55012E+07        0.97779  0.20958  0.00068
     676      0.78425E+06       -0.23047  0.97302  0.01126
              -7616.5            0.00227 -0.01103  0.99994
             -0.65108E+07        0.97308  0.23048  0.00033
     677      0.10839E+07       -0.22709  0.97385  0.00727
              -3693.5            0.00156 -0.00710  0.99997
             -0.75084E+07        0.97387  0.22709  0.00009
     678      0.13555E+07       -0.20859  0.97799  0.00534
              -2978.3            0.00118 -0.00521  0.99999
             -0.84385E+07        0.97800  0.20860 -0.00007
     679      0.15883E+07       -0.17925  0.98380  0.00378
               713.54            0.00085 -0.00368  0.99999
             -0.92731E+07        0.98380  0.17925 -0.00017
     680      0.17792E+07       -0.14165  0.98991  0.00263
               5357.2            0.00063 -0.00257  1.00000
             -0.99754E+07        0.98992  0.14165 -0.00026

          ***** POST1 NODAL STRESS PRINCIPAL DIRECTIONS *****

  LOAD STEP     1  SUBSTEP=     1
  TIME=    1.0000         LOAD CASE=  0

  NODE      PRINCIPAL STRESS     DIRECTION VECTOR (X,Y,Z)
             (S1,S2,S3)
     681      0.19223E+07       -0.09791  0.99519  0.00169
               9176.3            0.00045 -0.00165  1.00000
             -0.10509E+08        0.99520  0.09791 -0.00029
     682      0.20106E+07       -0.04999  0.99875  0.00084
               12866.            0.00037 -0.00082  1.00000
             -0.10845E+08        0.99875  0.04999 -0.00033
     683      0.20397E+07        0.00000  1.00000 -0.00000
               15734.            0.00037  0.00000  1.00000
             -0.10961E+08        1.00000 -0.00000 -0.00037
     684      0.20106E+07        0.04999  0.99875 -0.00084
               12866.            0.00037  0.00082  1.00000
             -0.10845E+08        0.99875 -0.04999 -0.00033
     685      0.19223E+07        0.09791  0.99519 -0.00169
               9176.3            0.00045  0.00165  1.00000
             -0.10509E+08        0.99520 -0.09791 -0.00029
     686      0.17792E+07        0.14165  0.98991 -0.00263
               5357.2            0.00063  0.00257  1.00000
             -0.99754E+07        0.98992 -0.14165 -0.00026
     687      0.15883E+07        0.17925  0.98380 -0.00378
               713.54            0.00085  0.00368  0.99999
             -0.92731E+07        0.98380 -0.17925 -0.00017
     688      0.13555E+07        0.20859  0.97799 -0.00534
              -2978.3            0.00118  0.00521  0.99999
             -0.84385E+07        0.97800 -0.20860 -0.00007
     689      0.10839E+07        0.22709  0.97385 -0.00727
              -3693.5            0.00156  0.00710  0.99997
             -0.75084E+07        0.97387 -0.22709  0.00009
     690      0.78425E+06        0.23047  0.97302 -0.01126
              -7616.5            0.00227  0.01103  0.99994
             -0.65108E+07        0.97308 -0.23048  0.00033
     691      0.45653E+06        0.20956  0.97762 -0.01877
              -1336.4            0.00326  0.01849  0.99982
             -0.55012E+07        0.97779 -0.20958  0.00068
     692      0.17103E+06        0.14310  0.98919 -0.03192
              -22465.            0.00305  0.03181  0.99949
             -0.45168E+07        0.98970 -0.14312  0.00154
     693      0.21504E+06       -0.18597  0.98200  0.03298
              -26903.            0.00435 -0.03274  0.99945
             -0.38944E+07        0.98255  0.18601  0.00182
     694      0.53803E+06       -0.25333  0.96718  0.01968
              -2.3249            0.00440 -0.01919  0.99981
             -0.50847E+07        0.96737  0.25337  0.00060
     695      0.89368E+06       -0.26884  0.96311  0.01184
              -10797.            0.00301 -0.01146  0.99993
             -0.62672E+07        0.96318  0.26886  0.00018
     696      0.12170E+07       -0.26035  0.96548  0.00769
              -6514.2            0.00207 -0.00741  0.99997
             -0.74396E+07        0.96551  0.26036 -0.00007
     697      0.15211E+07       -0.23723  0.97144  0.00567
              -6402.6            0.00157 -0.00545  0.99998
             -0.85500E+07        0.97145  0.23723 -0.00024

          ***** POST1 NODAL STRESS PRINCIPAL DIRECTIONS *****

  LOAD STEP     1  SUBSTEP=     1
  TIME=    1.0000         LOAD CASE=  0

  NODE      PRINCIPAL STRESS     DIRECTION VECTOR (X,Y,Z)
             (S1,S2,S3)
     698      0.17932E+07       -0.20318  0.97913  0.00398
              -1208.4            0.00116 -0.00383  0.99999
             -0.95689E+07        0.97914  0.20318 -0.00036
     699      0.20265E+07       -0.16041  0.98705  0.00283
               3764.0            0.00086 -0.00273  1.00000
             -0.10444E+08        0.98705  0.16041 -0.00041
     700      0.22046E+07       -0.11083  0.99384  0.00173
               12793.            0.00070 -0.00166  1.00000
             -0.11125E+08        0.99384  0.11083 -0.00051
     701      0.23190E+07       -0.05664  0.99839  0.00081
               17579.            0.00057 -0.00078  1.00000
             -0.11556E+08        0.99839  0.05664 -0.00053
     702      0.23603E+07        0.00000  1.00000 -0.00000
               15758.            0.00045  0.00000  1.00000
             -0.11701E+08        1.00000 -0.00000 -0.00045
     703      0.23190E+07        0.05664  0.99839 -0.00081
               17579.            0.00057  0.00078  1.00000
             -0.11556E+08        0.99839 -0.05664 -0.00053
     704      0.22046E+07        0.11083  0.99384 -0.00173
               12793.            0.00070  0.00166  1.00000
             -0.11125E+08        0.99384 -0.11083 -0.00051
     705      0.20265E+07        0.16041  0.98705 -0.00283
               3764.0            0.00086  0.00273  1.00000
             -0.10444E+08        0.98705 -0.16041 -0.00041
     706      0.17932E+07        0.20318  0.97913 -0.00398
              -1208.4            0.00116  0.00383  0.99999
             -0.95689E+07        0.97914 -0.20318 -0.00036
     707      0.15211E+07        0.23723  0.97144 -0.00567
              -6402.6            0.00157  0.00545  0.99998
             -0.85500E+07        0.97145 -0.23723 -0.00024
     708      0.12170E+07        0.26035  0.96548 -0.00769
              -6514.2            0.00207  0.00741  0.99997
             -0.74396E+07        0.96551 -0.26036 -0.00007
     709      0.89368E+06        0.26884  0.96311 -0.01184
              -10797.            0.00301  0.01146  0.99993
             -0.62672E+07        0.96318 -0.26886  0.00018
     710      0.53803E+06        0.25333  0.96718 -0.01968
              -2.3249            0.00440  0.01919  0.99981
             -0.50847E+07        0.96737 -0.25337  0.00060
     711      0.21504E+06        0.18597  0.98200 -0.03298
              -26903.            0.00435  0.03274  0.99945
             -0.38944E+07        0.98255 -0.18601  0.00182
     712      0.26225E+06       -0.24250  0.96955  0.03420
              -30148.            0.00619 -0.03371  0.99941
             -0.32197E+07        0.97013  0.24257  0.00217
     713      0.59924E+06       -0.30326  0.95266  0.02157
               2508.7            0.00613 -0.02068  0.99977
             -0.46272E+07        0.95289  0.30332  0.00043
     714      0.95780E+06       -0.31200  0.94999  0.01327
              -13857.            0.00414 -0.01261  0.99991
             -0.59834E+07        0.95007  0.31202  0.00000

          ***** POST1 NODAL STRESS PRINCIPAL DIRECTIONS *****

  LOAD STEP     1  SUBSTEP=     1
  TIME=    1.0000         LOAD CASE=  0

  NODE      PRINCIPAL STRESS     DIRECTION VECTOR (X,Y,Z)
             (S1,S2,S3)
     715      0.12878E+07       -0.29892  0.95424  0.00864
              -10040.            0.00281 -0.00818  0.99996
             -0.73403E+07        0.95427  0.29893 -0.00024
     716      0.16175E+07       -0.27172  0.96235  0.00640
              -11252.            0.00215 -0.00605  0.99998
             -0.86554E+07        0.96237  0.27173 -0.00042
     717      0.19306E+07       -0.23291  0.97249  0.00450
              -6161.9            0.00154 -0.00426  0.99999
             -0.98973E+07        0.97250  0.23291 -0.00050
     718      0.22105E+07       -0.18416  0.98289  0.00303
               5074.1            0.00119 -0.00286  1.00000
             -0.10997E+08        0.98289  0.18417 -0.00065
     719      0.24382E+07       -0.12754  0.99183  0.00202
               11056.            0.00085 -0.00193  1.00000
             -0.11867E+08        0.99183  0.12755 -0.00060
     720      0.25822E+07       -0.06515  0.99788  0.00104
               21180.            0.00074 -0.00099  1.00000
             -0.12432E+08        0.99788  0.06515 -0.00068
     721      0.26269E+07        0.00000  1.00000 -0.00000
               34424.            0.00087  0.00000  1.00000
             -0.12636E+08        1.00000 -0.00000 -0.00087
     722      0.25822E+07        0.06515  0.99788 -0.00104
               21180.            0.00074  0.00099  1.00000
             -0.12432E+08        0.99788 -0.06515 -0.00068
     723      0.24382E+07        0.12754  0.99183 -0.00202
               11056.            0.00085  0.00193  1.00000
             -0.11867E+08        0.99183 -0.12755 -0.00060
     724      0.22105E+07        0.18416  0.98289 -0.00303
               5074.1            0.00119  0.00286  1.00000
             -0.10997E+08        0.98289 -0.18417 -0.00065
     725      0.19306E+07        0.23291  0.97249 -0.00450
              -6161.9            0.00154  0.00426  0.99999
             -0.98973E+07        0.97250 -0.23291 -0.00050
     726      0.16175E+07        0.27172  0.96235 -0.00640
              -11252.            0.00215  0.00605  0.99998
             -0.86554E+07        0.96237 -0.27173 -0.00042
     727      0.12878E+07        0.29892  0.95424 -0.00864
              -10040.            0.00281  0.00818  0.99996
             -0.73403E+07        0.95427 -0.29893 -0.00024
     728      0.95780E+06        0.31200  0.94999 -0.01327
              -13857.            0.00414  0.01261  0.99991
             -0.59834E+07        0.95007 -0.31202  0.00000
     729      0.59924E+06        0.30326  0.95266 -0.02157
               2508.7            0.00613  0.02068  0.99977
             -0.46272E+07        0.95289 -0.30332  0.00043
     730      0.26225E+06        0.24250  0.96955 -0.03420
              -30148.            0.00619  0.03371  0.99941
             -0.32197E+07        0.97013 -0.24257  0.00217
     731      0.30912E+06       -0.31661  0.94788  0.03580
              -32786.            0.00916 -0.03469  0.99936
             -0.25140E+07        0.94851  0.31674  0.00230

          ***** POST1 NODAL STRESS PRINCIPAL DIRECTIONS *****

  LOAD STEP     1  SUBSTEP=     1
  TIME=    1.0000         LOAD CASE=  0

  NODE      PRINCIPAL STRESS     DIRECTION VECTOR (X,Y,Z)
             (S1,S2,S3)
     732      0.61689E+06       -0.35827  0.93328  0.02505
               6556.7            0.00889 -0.02342  0.99969
             -0.41172E+07        0.93357  0.35838  0.00009
     733      0.94737E+06       -0.35992  0.93285  0.01577
              -17131.            0.00593 -0.01462  0.99988
             -0.56287E+07        0.93296  0.35997 -0.00027
     734      0.12673E+07       -0.34382  0.93898  0.01039
              -14967.            0.00402 -0.00959  0.99995
             -0.71737E+07        0.93903  0.34384 -0.00048
     735      0.16188E+07       -0.31363  0.94951  0.00766
              -19334.            0.00298 -0.00709  0.99997
             -0.87229E+07        0.94954  0.31365 -0.00061
     736      0.19771E+07       -0.27015  0.96280  0.00524
              -10512.            0.00218 -0.00483  0.99999
             -0.10247E+08        0.96282  0.27016 -0.00079
     737      0.23226E+07       -0.21467  0.97668  0.00387
              -4781.9            0.00156 -0.00362  0.99999
             -0.11638E+08        0.97669  0.21467 -0.00075
     738      0.25989E+07       -0.14893  0.98885  0.00207
               24201.            0.00134 -0.00190  1.00000
             -0.12791E+08        0.98885  0.14893 -0.00104
     739      0.27921E+07       -0.07647  0.99707  0.00087
               35898.            0.00104 -0.00079  1.00000
             -0.13545E+08        0.99707  0.07647 -0.00097
     740      0.28730E+07        0.00000  1.00000 -0.00000
               17308.            0.00061  0.00000  1.00000
             -0.13790E+08        1.00000 -0.00000 -0.00061
     741      0.27921E+07        0.07647  0.99707 -0.00087
               35898.            0.00104  0.00079  1.00000
             -0.13545E+08        0.99707 -0.07647 -0.00097
     742      0.25989E+07        0.14893  0.98885 -0.00207
               24201.            0.00134  0.00190  1.00000
             -0.12791E+08        0.98885 -0.14893 -0.00104
     743      0.23226E+07        0.21467  0.97668 -0.00387
              -4781.9            0.00156  0.00362  0.99999
             -0.11638E+08        0.97669 -0.21467 -0.00075
     744      0.19771E+07        0.27015  0.96280 -0.00524
              -10512.            0.00218  0.00483  0.99999
             -0.10247E+08        0.96282 -0.27016 -0.00079
     745      0.16188E+07        0.31363  0.94951 -0.00766
              -19334.            0.00298  0.00709  0.99997
             -0.87229E+07        0.94954 -0.31365 -0.00061
     746      0.12673E+07        0.34382  0.93898 -0.01039
              -14967.            0.00402  0.00959  0.99995
             -0.71737E+07        0.93903 -0.34384 -0.00048
     747      0.94737E+06        0.35992  0.93285 -0.01577
              -17131.            0.00593  0.01462  0.99988
             -0.56287E+07        0.93296 -0.35997 -0.00027
     748      0.61689E+06        0.35827  0.93328 -0.02505
               6556.7            0.00889  0.02342  0.99969
             -0.41172E+07        0.93357 -0.35838  0.00009

          ***** POST1 NODAL STRESS PRINCIPAL DIRECTIONS *****

  LOAD STEP     1  SUBSTEP=     1
  TIME=    1.0000         LOAD CASE=  0

  NODE      PRINCIPAL STRESS     DIRECTION VECTOR (X,Y,Z)
             (S1,S2,S3)
     749      0.30912E+06        0.31661  0.94788 -0.03580
              -32786.            0.00916  0.03469  0.99936
             -0.25140E+07        0.94851 -0.31674  0.00230
     750      0.34581E+06       -0.41350  0.90975  0.03707
              -33588.            0.01367 -0.03451  0.99931
             -0.18134E+07        0.91040  0.41373  0.00183
     751      0.56144E+06       -0.41794  0.90792  0.03183
               12547.            0.01371 -0.02873  0.99949
             -0.35402E+07        0.90837  0.41817 -0.00044
     752      0.83093E+06       -0.41380  0.91013  0.02065
              -20135.            0.00913 -0.01853  0.99979
             -0.51640E+07        0.91032  0.41390 -0.00064
     753      0.11248E+07       -0.39730  0.91758  0.01372
              -20867.            0.00605 -0.01233  0.99991
             -0.68879E+07        0.91767  0.39735 -0.00065
     754      0.14972E+07       -0.36580  0.93064  0.00996
              -29003.            0.00449 -0.00894  0.99995
             -0.87028E+07        0.93068  0.36582 -0.00091
     755      0.19173E+07       -0.31793  0.94809  0.00699
              -30666.            0.00301 -0.00636  0.99998
             -0.10575E+08        0.94811  0.31794 -0.00083
     756      0.23306E+07       -0.25406  0.96718  0.00399
               1660.9            0.00222 -0.00354  0.99999
             -0.12392E+08        0.96719  0.25407 -0.00125
     757      0.27147E+07       -0.17759  0.98410  0.00324
               317.35            0.00137 -0.00305  0.99999
             -0.13912E+08        0.98410  0.17760 -0.00081
     758      0.29536E+07       -0.09083  0.99587  0.00181
               33471.            0.00130 -0.00170  1.00000
             -0.14967E+08        0.99587  0.09083 -0.00114
     759      0.30052E+07        0.00000  1.00000  0.00000
              0.10565E+06        0.00186 -0.00000  1.00000
             -0.15389E+08        1.00000 -0.00000 -0.00186
     760      0.29536E+07        0.09083  0.99587 -0.00181
               33471.            0.00130  0.00170  1.00000
             -0.14967E+08        0.99587 -0.09083 -0.00114
     761      0.27147E+07        0.17759  0.98410 -0.00324
               317.35            0.00137  0.00305  0.99999
             -0.13912E+08        0.98410 -0.17760 -0.00081
     762      0.23306E+07        0.25406  0.96718 -0.00399
               1660.9            0.00222  0.00354  0.99999
             -0.12392E+08        0.96719 -0.25407 -0.00125
     763      0.19173E+07        0.31793  0.94809 -0.00699
              -30666.            0.00301  0.00636  0.99998
             -0.10575E+08        0.94811 -0.31794 -0.00083
     764      0.14972E+07        0.36580  0.93064 -0.00996
              -29003.            0.00449  0.00894  0.99995
             -0.87028E+07        0.93068 -0.36582 -0.00091
     765      0.11248E+07        0.39730  0.91758 -0.01372
              -20867.            0.00605  0.01233  0.99991
             -0.68879E+07        0.91767 -0.39735 -0.00065

          ***** POST1 NODAL STRESS PRINCIPAL DIRECTIONS *****

  LOAD STEP     1  SUBSTEP=     1
  TIME=    1.0000         LOAD CASE=  0

  NODE      PRINCIPAL STRESS     DIRECTION VECTOR (X,Y,Z)
             (S1,S2,S3)
     766      0.83093E+06        0.41380  0.91013 -0.02065
              -20135.            0.00913  0.01853  0.99979
             -0.51640E+07        0.91032 -0.41390 -0.00064
     767      0.56144E+06        0.41794  0.90792 -0.03183
               12547.            0.01371  0.02873  0.99949
             -0.35402E+07        0.90837 -0.41817 -0.00044
     768      0.34581E+06        0.41350  0.90975 -0.03707
              -33588.            0.01367  0.03451  0.99931
             -0.18134E+07        0.91040 -0.41373  0.00183
     769      0.35965E+06       -0.54189  0.83960  0.03779
              -31313.            0.02092 -0.03148  0.99929
             -0.11639E+07        0.84019  0.54229 -0.00050
     770      0.40925E+06       -0.48334  0.87408  0.04863
               20020.            0.02475 -0.04188  0.99882
             -0.28835E+07        0.87508  0.48397 -0.00139
     771      0.58627E+06       -0.47631  0.87868  0.03238
              -19067.            0.01634 -0.02798  0.99947
             -0.45491E+07        0.87912  0.47659 -0.00103
     772      0.84035E+06       -0.46312  0.88604  0.02133
              -21720.            0.01084 -0.01840  0.99977
             -0.64205E+07        0.88623  0.46324 -0.00109
     773      0.12344E+07       -0.43259  0.90147  0.01484
              -46715.            0.00728 -0.01297  0.99989
             -0.85155E+07        0.90156  0.43266 -0.00096
     774      0.17094E+07       -0.38023  0.92485  0.00889
              -30853.            0.00478 -0.00764  0.99996
             -0.10847E+08        0.92488  0.38025 -0.00151
     775      0.22559E+07       -0.30725  0.95160  0.00760
              -53951.            0.00326 -0.00693  0.99997
             -0.13201E+08        0.95162  0.30727 -0.00098
     776      0.26804E+07       -0.21458  0.97670  0.00220
               61965.            0.00262 -0.00168  1.00000
             -0.15400E+08        0.97670  0.21459 -0.00220
     777      0.30383E+07       -0.11133  0.99378  0.00052
               92063.            0.00155 -0.00035  1.00000
             -0.16907E+08        0.99378  0.11133 -0.00151
     778      0.32510E+07        0.00000  1.00000  0.00000
              -37292.            0.00036 -0.00000  1.00000
             -0.17344E+08        1.00000 -0.00000 -0.00036
     779      0.30383E+07        0.11133  0.99378 -0.00052
               92063.            0.00155  0.00035  1.00000
             -0.16907E+08        0.99378 -0.11133 -0.00151
     780      0.26804E+07        0.21458  0.97670 -0.00220
               61965.            0.00262  0.00168  1.00000
             -0.15400E+08        0.97670 -0.21459 -0.00220
     781      0.22559E+07        0.30725  0.95160 -0.00760
              -53951.            0.00326  0.00693  0.99997
             -0.13201E+08        0.95162 -0.30727 -0.00098
     782      0.17094E+07        0.38023  0.92485 -0.00889
              -30853.            0.00478  0.00764  0.99996
             -0.10847E+08        0.92488 -0.38025 -0.00151

          ***** POST1 NODAL STRESS PRINCIPAL DIRECTIONS *****

  LOAD STEP     1  SUBSTEP=     1
  TIME=    1.0000         LOAD CASE=  0

  NODE      PRINCIPAL STRESS     DIRECTION VECTOR (X,Y,Z)
             (S1,S2,S3)
     783      0.12344E+07        0.43259  0.90147 -0.01484
              -46715.            0.00728  0.01297  0.99989
             -0.85155E+07        0.90156 -0.43266 -0.00096
     784      0.84035E+06        0.46312  0.88604 -0.02133
              -21720.            0.01084  0.01840  0.99977
             -0.64205E+07        0.88623 -0.46324 -0.00109
     785      0.58627E+06        0.47631  0.87868 -0.03238
              -19067.            0.01634  0.02798  0.99947
             -0.45491E+07        0.87912 -0.47659 -0.00103
     786      0.40925E+06        0.48334  0.87408 -0.04863
               20020.            0.02475  0.04188  0.99882
             -0.28835E+07        0.87508 -0.48397 -0.00139
     787      0.35965E+06        0.54189  0.83960 -0.03779
              -31313.            0.02092  0.03148  0.99929
             -0.11639E+07        0.84019 -0.54229 -0.00050
     788      0.34681E+06        0.71830 -0.69488 -0.03436
              -25370.            0.03159 -0.01677  0.99936
             -0.62207E+06        0.69502  0.71893 -0.00990
     789      0.16321E+06       -0.55563  0.81946  0.14059
               25728.            0.08096 -0.11496  0.99007
             -0.21476E+07        0.82748  0.56149 -0.00247
     790      0.23287E+06       -0.55093  0.83012  0.08586
              -12256.            0.04895 -0.07056  0.99631
             -0.37550E+07        0.83312  0.55310 -0.00176
     791      0.44144E+06       -0.54573  0.83667  0.04645
              -26883.            0.02615 -0.03840  0.99892
             -0.56951E+07        0.83755  0.54636 -0.00092
     792      0.82685E+06       -0.51873  0.85450  0.02726
              -38743.            0.01547 -0.02250  0.99963
             -0.80632E+07        0.85480  0.51896 -0.00154
     793      0.14123E+07       -0.46424  0.88554  0.01700
             -0.11921E+06        0.00869 -0.01463  0.99986
             -0.10878E+08        0.88567  0.46432 -0.00090
     794      0.19846E+07       -0.37735  0.92606  0.00519
               1347.7            0.00412 -0.00393  0.99998
             -0.14124E+08        0.92606  0.37737 -0.00233
     795      0.27213E+07       -0.26829  0.96330  0.00843
             -0.11440E+06        0.00261 -0.00802  0.99996
             -0.17105E+08        0.96333  0.26830 -0.00036
     796      0.31043E+07       -0.13648  0.99063  0.00465
               37977.            0.00289 -0.00429  0.99999
             -0.19495E+08        0.99064  0.13649 -0.00228
     797      0.30417E+07        0.00000  1.00000  0.00000
              0.44116E+06        0.00366 -0.00000  0.99999
             -0.20651E+08        0.99999 -0.00000 -0.00366
     798      0.31043E+07        0.13648  0.99063 -0.00465
               37977.            0.00289  0.00429  0.99999
             -0.19495E+08        0.99064 -0.13649 -0.00228
     799      0.27213E+07        0.26829  0.96330 -0.00843
             -0.11440E+06        0.00261  0.00802  0.99996
             -0.17105E+08        0.96333 -0.26830 -0.00036

          ***** POST1 NODAL STRESS PRINCIPAL DIRECTIONS *****

  LOAD STEP     1  SUBSTEP=     1
  TIME=    1.0000         LOAD CASE=  0

  NODE      PRINCIPAL STRESS     DIRECTION VECTOR (X,Y,Z)
             (S1,S2,S3)
     800      0.19846E+07        0.37735  0.92606 -0.00519
               1347.7            0.00412  0.00393  0.99998
             -0.14124E+08        0.92606 -0.37737 -0.00233
     801      0.14123E+07        0.46424  0.88554 -0.01700
             -0.11921E+06        0.00869  0.01463  0.99986
             -0.10878E+08        0.88567 -0.46432 -0.00090
     802      0.82685E+06        0.51873  0.85450 -0.02726
              -38743.            0.01547  0.02250  0.99963
             -0.80632E+07        0.85480 -0.51896 -0.00154
     803      0.44144E+06        0.54573  0.83667 -0.04645
              -26883.            0.02615  0.03840  0.99892
             -0.56951E+07        0.83755 -0.54636 -0.00092
     804      0.23287E+06        0.55093  0.83012 -0.08586
              -12256.            0.04895  0.07056  0.99631
             -0.37550E+07        0.83312 -0.55310 -0.00176
     805      0.16321E+06        0.55563  0.81946 -0.14059
               25728.            0.08096  0.11496  0.99007
             -0.21476E+07        0.82748 -0.56149 -0.00247
     806      0.34681E+06        0.71830  0.69488 -0.03436
              -25370.            0.03159  0.01677  0.99936
             -0.62207E+06       -0.69502  0.71893  0.00990
     807      0.34990E+06        0.93520 -0.35368 -0.01778
              -19696.            0.03060  0.03067  0.99906
             -0.27196E+06        0.35280  0.93486 -0.03950
     808       43374.           -0.06252  0.07703  0.99507
             -0.13653E+06       -0.67012  0.73562 -0.09905
             -0.13715E+07        0.73962  0.67300 -0.00563
     809      -1057.0           -0.08478  0.10170  0.99120
             -0.15384E+06       -0.64716  0.75077 -0.13238
             -0.27917E+07        0.75763  0.65268 -0.00217
     810       36706.           -0.25446  0.30032  0.91927
              -32240.           -0.59837  0.69786 -0.39362
             -0.46969E+07        0.75974  0.65022 -0.00213
     811      0.38978E+06       -0.62688  0.77648  0.06403
              -77023.            0.04127 -0.04897  0.99795
             -0.71777E+07        0.77803  0.62823 -0.00134
     812      0.84996E+06       -0.57378  0.81818  0.03676
               12642.            0.02282 -0.02890  0.99932
             -0.10591E+08        0.81869  0.57423 -0.00209
     813      0.18062E+07       -0.48050  0.87674  0.02140
             -0.34527E+06        0.01170 -0.01799  0.99977
             -0.14699E+08        0.87692  0.48064 -0.00161
     814      0.21914E+07       -0.33645  0.94170 -0.00307
              0.26023E+06        0.00327  0.00443  0.99998
             -0.19682E+08        0.94170  0.33643 -0.00457
     815      0.29961E+07       -0.17774  0.98407 -0.00255
              0.24544E+06        0.00093  0.00276  1.00000
             -0.23448E+08        0.98408  0.17774 -0.00141
     816      0.37794E+07        0.00000  1.00000  0.00000
             -0.42233E+06        0.00054 -0.00000  1.00000
             -0.24418E+08        1.00000 -0.00000 -0.00054

          ***** POST1 NODAL STRESS PRINCIPAL DIRECTIONS *****

  LOAD STEP     1  SUBSTEP=     1
  TIME=    1.0000         LOAD CASE=  0

  NODE      PRINCIPAL STRESS     DIRECTION VECTOR (X,Y,Z)
             (S1,S2,S3)
     817      0.29961E+07        0.17774  0.98407  0.00255
              0.24544E+06        0.00093 -0.00276  1.00000
             -0.23448E+08        0.98408 -0.17774 -0.00141
     818      0.21914E+07        0.33645  0.94170  0.00307
              0.26023E+06        0.00327 -0.00443  0.99998
             -0.19682E+08        0.94170 -0.33643 -0.00457
     819      0.18062E+07        0.48050  0.87674 -0.02140
             -0.34527E+06        0.01170  0.01799  0.99977
             -0.14699E+08        0.87692 -0.48064 -0.00161
     820      0.84996E+06        0.57378  0.81818 -0.03676
               12642.            0.02282  0.02890  0.99932
             -0.10591E+08        0.81869 -0.57423 -0.00209
     821      0.38978E+06        0.62688  0.77648 -0.06403
              -77023.            0.04127  0.04897  0.99795
             -0.71777E+07        0.77803 -0.62823 -0.00134
     822       36706.           -0.25446 -0.30032  0.91927
              -32240.            0.59837  0.69786  0.39362
             -0.46969E+07        0.75974 -0.65022 -0.00213
     823      -1057.0           -0.08478 -0.10170  0.99120
             -0.15384E+06        0.64716  0.75077  0.13238
             -0.27917E+07        0.75763 -0.65268 -0.00217
     824       43374.           -0.06252 -0.07703  0.99507
             -0.13653E+06        0.67012  0.73562  0.09905
             -0.13715E+07        0.73962 -0.67300 -0.00563
     825      0.34990E+06        0.93520  0.35368 -0.01778
              -19696.            0.03060 -0.03067  0.99906
             -0.27196E+06       -0.35280  0.93486  0.03950
     826      0.43102E+06        0.99175  0.12813  0.00220
              -551.51           -0.00900  0.05252  0.99858
             -0.19397E+06       -0.12784  0.99037 -0.05324
     827       23144.           -0.02727  0.02357  0.99935
             -0.29235E+06        0.93916 -0.34181  0.03369
             -0.66052E+06        0.34239  0.93947 -0.01282
     828       39667.           -0.03457  0.03183  0.99890
             -0.43195E+06        0.79484 -0.60501  0.04679
             -0.17389E+07        0.60583  0.79558 -0.00438
     829      -36242.           -0.07133  0.05994  0.99565
             -0.26042E+06        0.76565 -0.63647  0.09317
             -0.33371E+07        0.63928  0.76897 -0.00050
     830      0.13339E+06       -0.15096  0.13547  0.97921
             -0.10265E+06        0.73613 -0.64573  0.20282
             -0.58096E+07        0.65979  0.75145 -0.00224
     831      0.69395E+06        0.70765 -0.70516 -0.04452
             -0.33561E+06        0.03341 -0.02954  0.99900
             -0.92425E+07        0.70577  0.70843 -0.00265
     832      0.80149E+06       -0.61824  0.78048  0.09283
              0.21596E+06        0.05726 -0.07306  0.99568
             -0.14873E+08        0.78390  0.62089  0.00048
     833      0.28271E+07       -0.45655  0.88957  0.01471
             -0.11967E+07        0.00932 -0.01175  0.99989
             -0.21546E+08        0.88965  0.45664 -0.00293

          ***** POST1 NODAL STRESS PRINCIPAL DIRECTIONS *****

  LOAD STEP     1  SUBSTEP=     1
  TIME=    1.0000         LOAD CASE=  0

  NODE      PRINCIPAL STRESS     DIRECTION VECTOR (X,Y,Z)
             (S1,S2,S3)
     834      0.27988E+07       -0.22300  0.97461  0.02022
              0.20802E+06        0.00937 -0.01860  0.99978
             -0.29174E+08        0.97477  0.22315 -0.00498
     835      0.20782E+07        0.00000  1.00000  0.00000
              0.19136E+07        0.00441 -0.00000  0.99999
             -0.33531E+08        0.99999 -0.00000 -0.00441
     836      0.27988E+07        0.22300  0.97461 -0.02022
              0.20802E+06        0.00937  0.01860  0.99978
             -0.29174E+08        0.97477 -0.22315 -0.00498
     837      0.28271E+07        0.45655  0.88957 -0.01471
             -0.11967E+07        0.00932  0.01175  0.99989
             -0.21546E+08        0.88965 -0.45664 -0.00293
     838      0.80149E+06        0.61824  0.78048 -0.09283
              0.21596E+06        0.05726  0.07306  0.99568
             -0.14873E+08        0.78390 -0.62089  0.00048
     839      0.69395E+06        0.70765  0.70516 -0.04452
             -0.33561E+06        0.03341  0.02954  0.99900
             -0.92425E+07       -0.70577  0.70843  0.00265
     840      0.13339E+06       -0.15096 -0.13547  0.97921
             -0.10265E+06        0.73613  0.64573  0.20282
             -0.58096E+07       -0.65979  0.75145  0.00224
     841      -36242.           -0.07133 -0.05994  0.99565
             -0.26042E+06        0.76565  0.63647  0.09317
             -0.33371E+07       -0.63928  0.76897  0.00050
     842       39667.           -0.03457 -0.03183  0.99890
             -0.43195E+06        0.79484  0.60501  0.04679
             -0.17389E+07       -0.60583  0.79558  0.00438
     843       23144.           -0.02727 -0.02357  0.99935
             -0.29235E+06        0.93916  0.34181  0.03369
             -0.66052E+06       -0.34239  0.93947  0.01282
     844      0.43102E+06        0.99175 -0.12813  0.00220
              -551.51           -0.00900 -0.05252  0.99858
             -0.19397E+06        0.12784  0.99037  0.05324
     845      0.49719E+06        0.90119  0.43338  0.00572
              -16720.           -0.00794  0.00332  0.99996
             -0.17893E+06       -0.43334  0.90121 -0.00644
     846       89068.            0.83326  0.55206 -0.03018
               59212.            0.00980  0.03984  0.99916
             -0.49663E+06       -0.55280  0.83285 -0.02779
     847      -5780.4           -0.03000  0.00728  0.99952
             -0.34683E+06        0.99404 -0.10459  0.03059
             -0.68464E+06        0.10477  0.99449 -0.00410
     848      0.18771E+06       -0.05393  0.03539  0.99792
             -0.43966E+06        0.89217 -0.44714  0.06407
             -0.18681E+07        0.44847  0.89377 -0.00746
     849       27372.            0.84172 -0.53331 -0.08418
             -0.12189E+06        0.07025 -0.04640  0.99645
             -0.35619E+07        0.53532  0.84465  0.00159
     850      0.69379E+06       -0.09372  0.06416  0.99353
             -0.27717E+06        0.83749 -0.53454  0.11352
             -0.71974E+07        0.53836  0.84271 -0.00364

          ***** POST1 NODAL STRESS PRINCIPAL DIRECTIONS *****

  LOAD STEP     1  SUBSTEP=     1
  TIME=    1.0000         LOAD CASE=  0

  NODE      PRINCIPAL STRESS     DIRECTION VECTOR (X,Y,Z)
             (S1,S2,S3)
     851      0.15992E+07        0.78604 -0.61747 -0.02962
             -0.96114E+06        0.03095 -0.00854  0.99948
             -0.12342E+08        0.61740  0.78655 -0.01240
     852      0.12759E+07       -0.06305  0.06275  0.99604
             -0.11098E+07       -0.66239  0.74388 -0.08880
             -0.23618E+08        0.74650  0.66537  0.00534
     853      0.32274E+07       -0.32834  0.94367 -0.04095
             -0.80046E+06       -0.00522  0.04154  0.99912
             -0.39096E+08        0.94455  0.32826 -0.00872
     854      0.50442E+07        0.00000  1.00000  0.00000
             -0.80235E+06        0.00363 -0.00000  0.99999
             -0.44992E+08        0.99999 -0.00000 -0.00363
     855      0.32274E+07        0.32834  0.94367  0.04095
             -0.80046E+06       -0.00522 -0.04154  0.99912
             -0.39096E+08        0.94455 -0.32826 -0.00872
     856      0.12759E+07       -0.06305 -0.06275  0.99604
             -0.11098E+07        0.66239  0.74388  0.08880
             -0.23618E+08        0.74650 -0.66537  0.00534
     857      0.15992E+07        0.78604  0.61747 -0.02962
             -0.96114E+06        0.03095  0.00854  0.99948
             -0.12342E+08       -0.61740  0.78655  0.01240
     858      0.69379E+06       -0.09372 -0.06416  0.99353
             -0.27717E+06        0.83749  0.53454  0.11352
             -0.71974E+07       -0.53836  0.84271  0.00364
     859       27372.            0.84172  0.53331 -0.08418
             -0.12189E+06        0.07025  0.04640  0.99645
             -0.35619E+07       -0.53532  0.84465 -0.00159
     860      0.18771E+06       -0.05393 -0.03539  0.99792
             -0.43966E+06        0.89217  0.44714  0.06407
             -0.18681E+07       -0.44847  0.89377  0.00746
     861      -5780.4           -0.03000 -0.00728  0.99952
             -0.34683E+06        0.99404  0.10459  0.03059
             -0.68464E+06       -0.10477  0.99449  0.00410
     862       89068.            0.83326 -0.55206 -0.03018
               59212.            0.00980 -0.03984  0.99916
             -0.49663E+06        0.55280  0.83285  0.02779
     863      0.49719E+06        0.90119 -0.43338  0.00572
              -16720.           -0.00794 -0.00332  0.99996
             -0.17893E+06        0.43334  0.90121  0.00644
     864      0.40360E+06        0.72593  0.68769  0.01075
               2052.0            0.01209 -0.02839  0.99952
              -90419.           -0.68767  0.72545  0.02892
     865      0.54520E+06        0.51828  0.85498 -0.01994
              -19085.           -0.03125  0.04224  0.99862
             -0.15928E+06        0.85464 -0.51694  0.04861
     866      0.47212E+06        0.39901  0.91680  0.01674
               7986.4           -0.00843 -0.01458  0.99986
             -0.18565E+06        0.91691 -0.39909  0.00191
     867      0.38492E+06       -0.12978  0.99121 -0.02582
              -25885.            0.76860  0.08412 -0.63418
             -0.11904E+06        0.62643  0.10215  0.77275

          ***** POST1 NODAL STRESS PRINCIPAL DIRECTIONS *****

  LOAD STEP     1  SUBSTEP=     1
  TIME=    1.0000         LOAD CASE=  0

  NODE      PRINCIPAL STRESS     DIRECTION VECTOR (X,Y,Z)
             (S1,S2,S3)
     868      0.10416E+06        0.02211  0.06391  0.99771
               1424.2            0.80802 -0.58882  0.01981
             -0.80918E+06        0.58874  0.80574 -0.06466
     869      0.94426E+06        0.82154 -0.56598 -0.06878
             -0.35181E+06        0.01456 -0.09977  0.99490
             -0.21640E+07        0.56996  0.81836  0.07372
     870      0.96515E+06        0.09432 -0.01894  0.99536
             -0.25308E+06        0.90569 -0.41345 -0.09370
             -0.71614E+07        0.41330  0.91033 -0.02184
     871      0.56225E+07        0.85967 -0.50577 -0.07187
             -0.22467E+07        0.06442 -0.03222  0.99740
             -0.16262E+08        0.50677  0.86206 -0.00488
     872     -0.24388E+07        0.01465  0.01209  0.99982
             -0.10789E+08       -0.69620  0.71785  0.00152
             -0.38580E+08        0.71770  0.69610 -0.01893
     873      0.86372E+07        0.00170  0.00000  1.00000
              0.53214E+07        0.00000  1.00000 -0.00000
             -0.10330E+09        1.00000 -0.00000 -0.00170
     874     -0.24388E+07        0.01465 -0.01209  0.99982
             -0.10789E+08        0.69620  0.71785 -0.00152
             -0.38580E+08        0.71770 -0.69610 -0.01893
     875      0.56225E+07        0.85967  0.50577 -0.07187
             -0.22467E+07        0.06442  0.03222  0.99740
             -0.16262E+08       -0.50677  0.86206  0.00488
     876      0.96515E+06        0.09432  0.01894  0.99536
             -0.25308E+06        0.90569  0.41345 -0.09370
             -0.71614E+07       -0.41330  0.91033  0.02184
     877      0.94426E+06        0.82154  0.56598 -0.06878
             -0.35181E+06        0.01456  0.09977  0.99490
             -0.21640E+07       -0.56996  0.81836 -0.07372
     878      0.10416E+06        0.02211 -0.06391  0.99771
               1424.2            0.80802  0.58882  0.01981
             -0.80918E+06       -0.58874  0.80574  0.06466
     879      0.38492E+06        0.12978  0.99121  0.02582
              -25885.            0.76860 -0.08412 -0.63418
             -0.11904E+06        0.62643 -0.10215  0.77275
     880      0.47212E+06       -0.39901  0.91680 -0.01674
               7986.4           -0.00843  0.01458  0.99986
             -0.18565E+06        0.91691  0.39909  0.00191
     881      0.54520E+06       -0.51828  0.85498  0.01994
              -19085.           -0.03125 -0.04224  0.99862
             -0.15928E+06        0.85464  0.51694  0.04861
     882      0.40360E+06        0.72593 -0.68769  0.01075
               2052.0            0.01209  0.02839  0.99952
              -90419.            0.68767  0.72545 -0.02892
     883     -0.48173E+06       -0.32506  0.94569 -0.00000
             -0.16521E+07        0.00000  0.00000  1.00000
             -0.11558E+08        0.94569  0.32506 -0.00000
     884      0.22834E+06        0.65335  0.75705 -0.00000
               32800.            0.75705 -0.65335  0.00000
              -39258.           -0.00000  0.00000  1.00000

          ***** POST1 NODAL STRESS PRINCIPAL DIRECTIONS *****

  LOAD STEP     1  SUBSTEP=     1
  TIME=    1.0000         LOAD CASE=  0

  NODE      PRINCIPAL STRESS     DIRECTION VECTOR (X,Y,Z)
             (S1,S2,S3)
     885      0.61398E+06        0.00000 -0.00000  1.00000
             -0.49480E+06       -0.10456  0.99452  0.00000
             -0.10766E+08        0.99452  0.10456  0.00000
     886       22353.           -0.04896  0.99880 -0.00000
             -0.33795E+06       -0.00000  0.00000  1.00000
             -0.75009E+07        0.99880  0.04896 -0.00000
     887       95816.            0.00000 -0.00000  1.00000
             -0.18800E+06       -0.04438  0.99901  0.00000
             -0.72560E+07        0.99901  0.04438 -0.00000
     888      -20269.           -0.02984  0.99955 -0.00000
             -0.11819E+06        0.00000  0.00000  1.00000
             -0.64508E+07        0.99955  0.02984 -0.00000
     889      -9851.3            0.00000 -0.00000  1.00000
              -64257.           -0.03316  0.99945  0.00000
             -0.61419E+07        0.99945  0.03316 -0.00000
     890      -21449.           -0.03514  0.99938 -0.00000
              -59772.            0.00000  0.00000  1.00000
             -0.56414E+07        0.99938  0.03514 -0.00000
     891      -28790.           -0.04455  0.99901 -0.00000
              -39634.           -0.00000  0.00000  1.00000
             -0.51808E+07        0.99901  0.04455 -0.00000
     892      -21126.           -0.05751  0.99835 -0.00000
              -58097.            0.00000  0.00000  1.00000
             -0.45962E+07        0.99835  0.05751 -0.00000
     893      -27478.           -0.07850  0.99691 -0.00000
              -64740.            0.00000  0.00000  1.00000
             -0.39318E+07        0.99691  0.07850 -0.00000
     894      -32945.           -0.11118  0.99380 -0.00000
              -83259.            0.00000  0.00000  1.00000
             -0.31562E+07        0.99380  0.11118 -0.00000
     895      -39158.           -0.16865  0.98568 -0.00000
             -0.10179E+06        0.00000  0.00000  1.00000
             -0.23019E+07        0.98568  0.16865 -0.00000
     896      -26074.           -0.29071  0.95681 -0.00000
             -0.12376E+06       -0.00000  0.00000  1.00000
             -0.14173E+07        0.95681  0.29071 -0.00000
     897       95906.           -0.61470  0.78876 -0.00000
             -0.14320E+06       -0.00000  0.00000  1.00000
             -0.66073E+06        0.78876  0.61470 -0.00000
     898      0.55944E+06        0.93291 -0.36010  0.00000
             -0.15664E+06       -0.00000  0.00000  1.00000
             -0.35204E+06        0.36010  0.93291 -0.00000
     899      0.10637E+07        0.98849 -0.15127  0.00000
             -0.15764E+06       -0.00000  0.00000  1.00000
             -0.29333E+06        0.15127  0.98849 -0.00000
     900      0.12956E+07        0.99902 -0.04424  0.00000
             -0.13865E+06       -0.00000  0.00000  1.00000
             -0.26128E+06        0.04424  0.99902 -0.00000
     901      0.11867E+07        0.99901  0.04447  0.00000
             -0.10825E+06       -0.00000 -0.00000  1.00000
             -0.20377E+06       -0.04447  0.99901  0.00000

          ***** POST1 NODAL STRESS PRINCIPAL DIRECTIONS *****

  LOAD STEP     1  SUBSTEP=     1
  TIME=    1.0000         LOAD CASE=  0

  NODE      PRINCIPAL STRESS     DIRECTION VECTOR (X,Y,Z)
             (S1,S2,S3)
     902      0.78541E+06        0.98634  0.16474  0.00000
              -43804.           -0.00000 -0.00000  1.00000
             -0.12038E+06       -0.16474  0.98634  0.00000
     903      0.34599E+06        0.93155  0.36362  0.00000
               9328.6           -0.36362  0.93155 -0.00000
              -18394.           -0.00000  0.00000  1.00000
     904      0.22834E+06       -0.65335  0.75705 -0.00000
               32800.            0.75705  0.65335 -0.00000
              -39258.            0.00000  0.00000  1.00000
     905     -0.48173E+06        0.32506  0.94569 -0.00000
             -0.16521E+07       -0.00000  0.00000  1.00000
             -0.11558E+08        0.94569 -0.32506  0.00000
     906      0.61398E+06       -0.00000 -0.00000  1.00000
             -0.49480E+06        0.10456  0.99452  0.00000
             -0.10766E+08        0.99452 -0.10456 -0.00000
     907       22353.            0.04896  0.99880 -0.00000
             -0.33795E+06        0.00000  0.00000  1.00000
             -0.75009E+07        0.99880 -0.04896 -0.00000
     908       95816.           -0.00000 -0.00000  1.00000
             -0.18800E+06        0.04438  0.99901  0.00000
             -0.72560E+07        0.99901 -0.04438  0.00000
     909      -20269.            0.02984  0.99955 -0.00000
             -0.11819E+06        0.00000  0.00000  1.00000
             -0.64508E+07        0.99955 -0.02984  0.00000
     910      -9851.3           -0.00000 -0.00000  1.00000
              -64257.            0.03316  0.99945  0.00000
             -0.61419E+07        0.99945 -0.03316  0.00000
     911      -21449.            0.03514  0.99938 -0.00000
              -59772.            0.00000  0.00000  1.00000
             -0.56414E+07        0.99938 -0.03514  0.00000
     912      -28790.            0.04455  0.99901 -0.00000
              -39634.            0.00000  0.00000  1.00000
             -0.51808E+07        0.99901 -0.04455  0.00000
     913      -21126.            0.05751  0.99835 -0.00000
              -58097.            0.00000  0.00000  1.00000
             -0.45962E+07        0.99835 -0.05751  0.00000
     914      -27478.            0.07850  0.99691 -0.00000
              -64740.            0.00000  0.00000  1.00000
             -0.39318E+07        0.99691 -0.07850  0.00000
     915      -32945.            0.11118  0.99380 -0.00000
              -83259.            0.00000  0.00000  1.00000
             -0.31562E+07        0.99380 -0.11118  0.00000
     916      -39158.            0.16865  0.98568 -0.00000
             -0.10179E+06        0.00000  0.00000  1.00000
             -0.23019E+07        0.98568 -0.16865  0.00000
     917      -26074.            0.29071  0.95681 -0.00000
             -0.12376E+06        0.00000  0.00000  1.00000
             -0.14173E+07        0.95681 -0.29071  0.00000
     918       95906.            0.61470  0.78876 -0.00000
             -0.14320E+06        0.00000  0.00000  1.00000
             -0.66073E+06        0.78876 -0.61470  0.00000

          ***** POST1 NODAL STRESS PRINCIPAL DIRECTIONS *****

  LOAD STEP     1  SUBSTEP=     1
  TIME=    1.0000         LOAD CASE=  0

  NODE      PRINCIPAL STRESS     DIRECTION VECTOR (X,Y,Z)
             (S1,S2,S3)
     919      0.55944E+06        0.93291  0.36010 -0.00000
             -0.15664E+06        0.00000  0.00000  1.00000
             -0.35204E+06       -0.36010  0.93291 -0.00000
     920      0.10637E+07        0.98849  0.15127 -0.00000
             -0.15764E+06        0.00000  0.00000  1.00000
             -0.29333E+06       -0.15127  0.98849 -0.00000
     921      0.12956E+07        0.99902  0.04424 -0.00000
             -0.13865E+06        0.00000  0.00000  1.00000
             -0.26128E+06       -0.04424  0.99902 -0.00000
     922      0.11867E+07        0.99901 -0.04447 -0.00000
             -0.10825E+06        0.00000  0.00000  1.00000
             -0.20377E+06        0.04447  0.99901 -0.00000
     923      0.78541E+06        0.98634 -0.16474 -0.00000
              -43804.            0.00000 -0.00000  1.00000
             -0.12038E+06        0.16474  0.98634  0.00000
     924      0.34599E+06        0.93155 -0.36362 -0.00000
               9328.6            0.36362  0.93155 -0.00000
              -18394.            0.00000  0.00000  1.00000
     925     -0.14673E+07       -0.32649  0.94520 -0.00000
             -0.22331E+07       -0.00000  0.00000  1.00000
             -0.86508E+07        0.94520  0.32649 -0.00000
     926     -0.13188E+07       -0.30279  0.95306 -0.00000
             -0.19002E+07       -0.00000  0.00000  1.00000
             -0.76595E+07        0.95306  0.30279 -0.00000
     927     -0.14216E+07       -0.28244  0.95928 -0.00000
             -0.18880E+07        0.00000  0.00000  1.00000
             -0.72689E+07        0.95928  0.28244 -0.00000
     928     -0.14830E+07       -0.25533  0.96686 -0.00000
             -0.18483E+07        0.00000  0.00000  1.00000
             -0.70862E+07        0.96686  0.25533 -0.00000
     929     -0.15814E+07       -0.22382  0.97463 -0.00000
             -0.18538E+07        0.00000  0.00000  1.00000
             -0.70186E+07        0.97463  0.22382 -0.00000
     930     -0.16759E+07       -0.18696  0.98237 -0.00000
             -0.18621E+07        0.00000  0.00000  1.00000
             -0.70038E+07        0.98237  0.18696 -0.00000
     931     -0.17660E+07       -0.14528  0.98939  0.00000
             -0.18768E+07       -0.00000 -0.00000  1.00000
             -0.70143E+07        0.98939  0.14528  0.00000
     932     -0.18384E+07       -0.09943  0.99504  0.00000
             -0.18897E+07        0.00000 -0.00000  1.00000
             -0.70316E+07        0.99504  0.09943  0.00000
     933     -0.18858E+07       -0.05053  0.99872  0.00000
             -0.18989E+07       -0.00000 -0.00000  1.00000
             -0.70456E+07        0.99872  0.05053  0.00000
     934     -0.19022E+07        0.00000  0.00000  1.00000
             -0.19022E+07        0.00000  1.00000  0.00000
             -0.70509E+07        1.00000  0.00000  0.00000
     935     -0.18858E+07        0.05053  0.99872 -0.00000
             -0.18989E+07        0.00000  0.00000  1.00000
             -0.70456E+07        0.99872 -0.05053  0.00000

          ***** POST1 NODAL STRESS PRINCIPAL DIRECTIONS *****

  LOAD STEP     1  SUBSTEP=     1
  TIME=    1.0000         LOAD CASE=  0

  NODE      PRINCIPAL STRESS     DIRECTION VECTOR (X,Y,Z)
             (S1,S2,S3)
     936     -0.18384E+07        0.09943  0.99504 -0.00000
             -0.18897E+07        0.00000  0.00000  1.00000
             -0.70316E+07        0.99504 -0.09943  0.00000
     937     -0.17660E+07        0.14528  0.98939 -0.00000
             -0.18768E+07       -0.00000  0.00000  1.00000
             -0.70143E+07        0.98939 -0.14528  0.00000
     938     -0.16759E+07        0.18696  0.98237 -0.00000
             -0.18621E+07       -0.00000  0.00000  1.00000
             -0.70038E+07        0.98237 -0.18696  0.00000
     939     -0.15814E+07        0.22382  0.97463 -0.00000
             -0.18538E+07       -0.00000  0.00000  1.00000
             -0.70186E+07        0.97463 -0.22382  0.00000
     940     -0.14830E+07        0.25533  0.96686 -0.00000
             -0.18483E+07        0.00000  0.00000  1.00000
             -0.70862E+07        0.96686 -0.25533  0.00000
     941     -0.14216E+07        0.28244  0.95928 -0.00000
             -0.18880E+07        0.00000  0.00000  1.00000
             -0.72689E+07        0.95928 -0.28244  0.00000
     942     -0.13188E+07        0.30279  0.95306 -0.00000
             -0.19002E+07       -0.00000  0.00000  1.00000
             -0.76595E+07        0.95306 -0.30279  0.00000
     943     -0.14673E+07        0.32649  0.94520 -0.00000
             -0.22331E+07        0.00000  0.00000  1.00000
             -0.86508E+07        0.94520 -0.32649  0.00000
     944      0.30452E+06        0.40304  0.91518 -0.00000
               36830.            0.00000  0.00000  1.00000
              -30326.            0.91518 -0.40304 -0.00000
     945      0.10138E+07        0.19506  0.98079 -0.00000
              -61871.            0.98079 -0.19506  0.00000
             -0.16581E+06       -0.00000  0.00000  1.00000
     946      0.12829E+07        0.06165  0.99810 -0.00000
               50426.            0.00000  0.00000  1.00000
             -0.32168E+06        0.99810 -0.06165 -0.00000
     947      0.25601E+07        0.06561  0.99785 -0.00000
             -0.13152E+06        0.99785 -0.06561 -0.00000
             -0.66083E+06        0.00000  0.00000  1.00000
     948      0.14588E+07       -0.15011  0.98867 -0.00000
              0.50570E+06       -0.00000  0.00000  1.00000
             -0.10762E+07        0.98867  0.15011  0.00000
     949      0.46437E+07        0.02236  0.99975 -0.00000
              0.10044E+06        0.99975 -0.02236 -0.00000
             -0.23859E+07        0.00000  0.00000  1.00000
     950      0.25109E+07        0.00000 -0.00000  1.00000
             -0.46733E+06       -0.65635  0.75445  0.00000
             -0.55296E+07        0.75445  0.65635  0.00000
     951      0.93091E+07       -0.07498  0.99718 -0.00000
             -0.13081E+07        0.99718  0.07498 -0.00000
             -0.77009E+07        0.00000  0.00000  1.00000
     952      0.52254E+07        0.88828 -0.45931  0.00000
              -42325.           -0.00000  0.00000  1.00000
             -0.65251E+08        0.45931  0.88828  0.00000

          ***** POST1 NODAL STRESS PRINCIPAL DIRECTIONS *****

  LOAD STEP     1  SUBSTEP=     1
  TIME=    1.0000         LOAD CASE=  0

  NODE      PRINCIPAL STRESS     DIRECTION VECTOR (X,Y,Z)
             (S1,S2,S3)
     953      0.17981E+08        0.00000  0.00000  1.00000
             -0.28704E+08        0.00000  1.00000  0.00000
             -0.12261E+09        1.00000  0.00000  0.00000
     954      0.52254E+07        0.88828  0.45931  0.00000
              -42325.           -0.00000 -0.00000  1.00000
             -0.65251E+08       -0.45931  0.88828  0.00000
     955      0.93091E+07        0.07498  0.99718 -0.00000
             -0.13081E+07        0.99718 -0.07498 -0.00000
             -0.77009E+07        0.00000  0.00000  1.00000
     956      0.25109E+07       -0.00000 -0.00000  1.00000
             -0.46733E+06        0.65635  0.75445  0.00000
             -0.55296E+07        0.75445 -0.65635 -0.00000
     957      0.46437E+07       -0.02236  0.99975 -0.00000
              0.10044E+06        0.99975  0.02236 -0.00000
             -0.23859E+07        0.00000  0.00000  1.00000
     958      0.14588E+07        0.15011  0.98867 -0.00000
              0.50570E+06        0.00000  0.00000  1.00000
             -0.10762E+07        0.98867 -0.15011 -0.00000
     959      0.25601E+07       -0.06561  0.99785 -0.00000
             -0.13152E+06        0.99785  0.06561 -0.00000
             -0.66083E+06        0.00000  0.00000  1.00000
     960      0.12829E+07       -0.06165  0.99810 -0.00000
               50426.           -0.00000  0.00000  1.00000
             -0.32168E+06        0.99810  0.06165  0.00000
     961      0.10138E+07       -0.19506  0.98079 -0.00000
              -61871.            0.98079  0.19506 -0.00000
             -0.16581E+06        0.00000  0.00000  1.00000
     962      0.30452E+06       -0.40304  0.91518 -0.00000
               36830.           -0.00000  0.00000  1.00000
              -30326.            0.91518  0.40304  0.00000
     963      0.53652E+06       -0.00000  0.00000  1.00000
             -0.12724E+07       -0.16657  0.98603 -0.00000
             -0.95215E+07        0.98603  0.16657  0.00000
     964      0.38812E+06       -0.00000  0.00000  1.00000
             -0.15614E+07       -0.24697  0.96902 -0.00000
             -0.85418E+07        0.96902  0.24697  0.00000
     965      0.46932E+06       -0.00000  0.00000  1.00000
             -0.17434E+07       -0.24205  0.97026 -0.00000
             -0.82163E+07        0.97026  0.24205  0.00000
     966      0.44427E+06       -0.00000  0.00000  1.00000
             -0.18145E+07       -0.22588  0.97416 -0.00000
             -0.80523E+07        0.97416  0.22588  0.00000
     967      0.45557E+06       -0.00000  0.00000  1.00000
             -0.18968E+07       -0.19868  0.98006 -0.00000
             -0.80216E+07        0.98006  0.19868 -0.00000
     968      0.45889E+06       -0.00000  0.00000  1.00000
             -0.19665E+07       -0.16579  0.98616 -0.00000
             -0.80431E+07        0.98616  0.16579 -0.00000
     969      0.46562E+06        0.00000  0.00000  1.00000
             -0.20290E+07       -0.12812  0.99176 -0.00000
             -0.80900E+07        0.99176  0.12812 -0.00000

          ***** POST1 NODAL STRESS PRINCIPAL DIRECTIONS *****

  LOAD STEP     1  SUBSTEP=     1
  TIME=    1.0000         LOAD CASE=  0

  NODE      PRINCIPAL STRESS     DIRECTION VECTOR (X,Y,Z)
             (S1,S2,S3)
     970      0.47074E+06        0.00000  0.00000  1.00000
             -0.20777E+07       -0.08721  0.99619 -0.00000
             -0.81373E+07        0.99619  0.08721 -0.00000
     971      0.47434E+06        0.00000  0.00000  1.00000
             -0.21090E+07       -0.04413  0.99903 -0.00000
             -0.81712E+07        0.99903  0.04413 -0.00000
     972      0.47558E+06        0.00000  0.00000  1.00000
             -0.21198E+07        0.00000  1.00000  0.00000
             -0.81834E+07        1.00000  0.00000  0.00000
     973      0.47434E+06        0.00000  0.00000  1.00000
             -0.21090E+07        0.04413  0.99903 -0.00000
             -0.81712E+07        0.99903 -0.04413 -0.00000
     974      0.47074E+06        0.00000  0.00000  1.00000
             -0.20777E+07        0.08721  0.99619 -0.00000
             -0.81373E+07        0.99619 -0.08721 -0.00000
     975      0.46562E+06        0.00000  0.00000  1.00000
             -0.20290E+07        0.12812  0.99176 -0.00000
             -0.80900E+07        0.99176 -0.12812 -0.00000
     976      0.45889E+06        0.00000  0.00000  1.00000
             -0.19665E+07        0.16579  0.98616 -0.00000
             -0.80431E+07        0.98616 -0.16579 -0.00000
     977      0.45557E+06        0.00000  0.00000  1.00000
             -0.18968E+07        0.19868  0.98006 -0.00000
             -0.80216E+07        0.98006 -0.19868 -0.00000
     978      0.44427E+06        0.00000  0.00000  1.00000
             -0.18145E+07        0.22588  0.97416 -0.00000
             -0.80523E+07        0.97416 -0.22588 -0.00000
     979      0.46932E+06        0.00000  0.00000  1.00000
             -0.17434E+07        0.24205  0.97026 -0.00000
             -0.82163E+07        0.97026 -0.24205 -0.00000
     980      0.38812E+06        0.00000  0.00000  1.00000
             -0.15614E+07        0.24697  0.96902 -0.00000
             -0.85418E+07        0.96902 -0.24697 -0.00000
     981      0.53652E+06        0.00000  0.00000  1.00000
             -0.12724E+07        0.16657  0.98603 -0.00000
             -0.95215E+07        0.98603 -0.16657 -0.00000
     982       59939.           -0.11262  0.99364  0.00000
             -0.26766E+06        0.00000 -0.00000  1.00000
             -0.79496E+07        0.99364  0.11262  0.00000
     983     -0.15214E+06       -0.00000  0.00000  1.00000
             -0.38024E+06       -0.17714  0.98419 -0.00000
             -0.79473E+07        0.98419  0.17714  0.00000
     984     -0.22273E+06       -0.00000  0.00000  1.00000
             -0.57189E+06       -0.20289  0.97920 -0.00000
             -0.77062E+07        0.97920  0.20289  0.00000
     985     -0.17759E+06       -0.00000  0.00000  1.00000
             -0.73315E+06       -0.19616  0.98057 -0.00000
             -0.76600E+07        0.98057  0.19616  0.00000
     986     -0.18634E+06       -0.00000  0.00000  1.00000
             -0.80195E+06       -0.17650  0.98430 -0.00000
             -0.76663E+07        0.98430  0.17650  0.00000

          ***** POST1 NODAL STRESS PRINCIPAL DIRECTIONS *****

  LOAD STEP     1  SUBSTEP=     1
  TIME=    1.0000         LOAD CASE=  0

  NODE      PRINCIPAL STRESS     DIRECTION VECTOR (X,Y,Z)
             (S1,S2,S3)
     987     -0.18174E+06       -0.00000  0.00000  1.00000
             -0.85298E+06       -0.14808  0.98898 -0.00000
             -0.77268E+07        0.98898  0.14808 -0.00000
     988     -0.18406E+06       -0.00000  0.00000  1.00000
             -0.88231E+06       -0.11463  0.99341 -0.00000
             -0.77986E+07        0.99341  0.11463 -0.00000
     989     -0.18468E+06        0.00000  0.00000  1.00000
             -0.90161E+06       -0.07794  0.99696 -0.00000
             -0.78659E+07        0.99696  0.07794 -0.00000
     990     -0.18575E+06        0.00000  0.00000  1.00000
             -0.91190E+06       -0.03940  0.99922 -0.00000
             -0.79117E+07        0.99922  0.03940 -0.00000
     991     -0.18598E+06        0.00000  0.00000  1.00000
             -0.91531E+06        0.00000  1.00000  0.00000
             -0.79281E+07        1.00000  0.00000  0.00000
     992     -0.18575E+06        0.00000  0.00000  1.00000
             -0.91190E+06        0.03940  0.99922 -0.00000
             -0.79117E+07        0.99922 -0.03940 -0.00000
     993     -0.18468E+06        0.00000  0.00000  1.00000
             -0.90161E+06        0.07794  0.99696 -0.00000
             -0.78659E+07        0.99696 -0.07794 -0.00000
     994     -0.18406E+06        0.00000  0.00000  1.00000
             -0.88231E+06        0.11463  0.99341 -0.00000
             -0.77986E+07        0.99341 -0.11463 -0.00000
     995     -0.18174E+06        0.00000  0.00000  1.00000
             -0.85298E+06        0.14808  0.98898 -0.00000
             -0.77268E+07        0.98898 -0.14808 -0.00000
     996     -0.18634E+06        0.00000  0.00000  1.00000
             -0.80195E+06        0.17650  0.98430 -0.00000
             -0.76663E+07        0.98430 -0.17650 -0.00000
     997     -0.17759E+06        0.00000  0.00000  1.00000
             -0.73315E+06        0.19616  0.98057 -0.00000
             -0.76600E+07        0.98057 -0.19616 -0.00000
     998     -0.22273E+06        0.00000  0.00000  1.00000
             -0.57189E+06        0.20289  0.97920 -0.00000
             -0.77062E+07        0.97920 -0.20289 -0.00000
     999     -0.15214E+06        0.00000  0.00000  1.00000
             -0.38024E+06        0.17714  0.98419 -0.00000
             -0.79473E+07        0.98419 -0.17714 -0.00000
    1000       59939.            0.11262  0.99364  0.00000
             -0.26766E+06       -0.00000 -0.00000  1.00000
             -0.79496E+07        0.99364 -0.11262 -0.00000
    1001       96634.           -0.00000  0.00000  1.00000
             -0.14266E+06       -0.07873  0.99690 -0.00000
             -0.75401E+07        0.99690  0.07873  0.00000
    1002       52180.           -0.00000  0.00000  1.00000
             -0.26841E+06       -0.14039  0.99010 -0.00000
             -0.77451E+07        0.99010  0.14039  0.00000
    1003       67455.           -0.00000  0.00000  1.00000
             -0.42772E+06       -0.17043  0.98537 -0.00000
             -0.78338E+07        0.98537  0.17043  0.00000

          ***** POST1 NODAL STRESS PRINCIPAL DIRECTIONS *****

  LOAD STEP     1  SUBSTEP=     1
  TIME=    1.0000         LOAD CASE=  0

  NODE      PRINCIPAL STRESS     DIRECTION VECTOR (X,Y,Z)
             (S1,S2,S3)
    1004       58284.           -0.00000  0.00000  1.00000
             -0.52689E+06       -0.17581  0.98442 -0.00000
             -0.79012E+07        0.98442  0.17581  0.00000
    1005       66556.           -0.00000  0.00000  1.00000
             -0.59199E+06       -0.16283  0.98665 -0.00000
             -0.80026E+07        0.98665  0.16283  0.00000
    1006       69096.           -0.00000  0.00000  1.00000
             -0.62503E+06       -0.13922  0.99026 -0.00000
             -0.81213E+07        0.99026  0.13922 -0.00000
    1007       72341.           -0.00000  0.00000  1.00000
             -0.64199E+06       -0.10885  0.99406 -0.00000
             -0.82387E+07        0.99406  0.10885 -0.00000
    1008       74426.            0.00000  0.00000  1.00000
             -0.64930E+06       -0.07444  0.99723 -0.00000
             -0.83368E+07        0.99723  0.07444 -0.00000
    1009       75783.            0.00000  0.00000  1.00000
             -0.65195E+06       -0.03774  0.99929 -0.00000
             -0.84016E+07        0.99929  0.03774 -0.00000
    1010       76239.            0.00000  0.00000  1.00000
             -0.65255E+06        0.00000  1.00000  0.00000
             -0.84242E+07        1.00000  0.00000  0.00000
    1011       75783.            0.00000  0.00000  1.00000
             -0.65195E+06        0.03774  0.99929 -0.00000
             -0.84016E+07        0.99929 -0.03774 -0.00000
    1012       74426.            0.00000  0.00000  1.00000
             -0.64930E+06        0.07444  0.99723 -0.00000
             -0.83368E+07        0.99723 -0.07444 -0.00000
    1013       72341.            0.00000  0.00000  1.00000
             -0.64199E+06        0.10885  0.99406 -0.00000
             -0.82387E+07        0.99406 -0.10885 -0.00000
    1014       69096.            0.00000  0.00000  1.00000
             -0.62503E+06        0.13922  0.99026 -0.00000
             -0.81213E+07        0.99026 -0.13922 -0.00000
    1015       66556.            0.00000  0.00000  1.00000
             -0.59199E+06        0.16283  0.98665 -0.00000
             -0.80026E+07        0.98665 -0.16283 -0.00000
    1016       58284.            0.00000  0.00000  1.00000
             -0.52689E+06        0.17581  0.98442 -0.00000
             -0.79012E+07        0.98442 -0.17581 -0.00000
    1017       67455.            0.00000  0.00000  1.00000
             -0.42772E+06        0.17043  0.98537 -0.00000
             -0.78338E+07        0.98537 -0.17043 -0.00000
    1018       52180.            0.00000  0.00000  1.00000
             -0.26841E+06        0.14039  0.99010 -0.00000
             -0.77451E+07        0.99010 -0.14039 -0.00000
    1019       96634.            0.00000  0.00000  1.00000
             -0.14266E+06        0.07873  0.99690 -0.00000
             -0.75401E+07        0.99690 -0.07873 -0.00000
    1020       41279.           -0.06736  0.99773  0.00000
              -46422.            0.00000 -0.00000  1.00000
             -0.68597E+07        0.99773  0.06736  0.00000

          ***** POST1 NODAL STRESS PRINCIPAL DIRECTIONS *****

  LOAD STEP     1  SUBSTEP=     1
  TIME=    1.0000         LOAD CASE=  0

  NODE      PRINCIPAL STRESS     DIRECTION VECTOR (X,Y,Z)
             (S1,S2,S3)
    1021      -1341.2           -0.11866  0.99294  0.00000
              -11037.            0.00000 -0.00000  1.00000
             -0.72927E+07        0.99294  0.11866  0.00000
    1022      -14950.           -0.15114  0.98851  0.00000
              -41384.            0.00000 -0.00000  1.00000
             -0.75633E+07        0.98851  0.15114  0.00000
    1023      -31221.           -0.00000  0.00000  1.00000
              -50131.           -0.16070  0.98700 -0.00000
             -0.78081E+07        0.98700  0.16070  0.00000
    1024      -33137.           -0.00000  0.00000  1.00000
              -62009.           -0.15303  0.98822 -0.00000
             -0.80222E+07        0.98822  0.15303  0.00000
    1025      -29647.           -0.00000  0.00000  1.00000
              -64170.           -0.13309  0.99110 -0.00000
             -0.82233E+07        0.99110  0.13309  0.00000
    1026      -28219.           -0.00000  0.00000  1.00000
              -57111.           -0.10528  0.99444 -0.00000
             -0.83979E+07        0.99444  0.10528 -0.00000
    1027      -26780.           -0.00000  0.00000  1.00000
              -47896.           -0.07252  0.99737 -0.00000
             -0.85348E+07        0.99737  0.07252 -0.00000
    1028      -26032.           -0.00000  0.00000  1.00000
              -40409.           -0.03691  0.99932 -0.00000
             -0.86221E+07        0.99932  0.03691 -0.00000
    1029      -25768.            0.00000  0.00000  1.00000
              -37603.            0.00000  1.00000  0.00000
             -0.86522E+07        1.00000  0.00000  0.00000
    1030      -26032.            0.00000  0.00000  1.00000
              -40409.            0.03691  0.99932 -0.00000
             -0.86221E+07        0.99932 -0.03691 -0.00000
    1031      -26780.            0.00000  0.00000  1.00000
              -47896.            0.07252  0.99737 -0.00000
             -0.85348E+07        0.99737 -0.07252 -0.00000
    1032      -28219.            0.00000  0.00000  1.00000
              -57111.            0.10528  0.99444 -0.00000
             -0.83979E+07        0.99444 -0.10528 -0.00000
    1033      -29647.            0.00000  0.00000  1.00000
              -64170.            0.13309  0.99110 -0.00000
             -0.82233E+07        0.99110 -0.13309 -0.00000
    1034      -33137.            0.00000  0.00000  1.00000
              -62009.            0.15303  0.98822 -0.00000
             -0.80222E+07        0.98822 -0.15303 -0.00000
    1035      -31221.            0.00000  0.00000  1.00000
              -50131.            0.16070  0.98700 -0.00000
             -0.78081E+07        0.98700 -0.16070 -0.00000
    1036      -14950.            0.15114  0.98851  0.00000
              -41384.           -0.00000 -0.00000  1.00000
             -0.75633E+07        0.98851 -0.15114 -0.00000
    1037      -1341.2            0.11866  0.99294  0.00000
              -11037.           -0.00000 -0.00000  1.00000
             -0.72927E+07        0.99294 -0.11866 -0.00000

          ***** POST1 NODAL STRESS PRINCIPAL DIRECTIONS *****

  LOAD STEP     1  SUBSTEP=     1
  TIME=    1.0000         LOAD CASE=  0

  NODE      PRINCIPAL STRESS     DIRECTION VECTOR (X,Y,Z)
             (S1,S2,S3)
    1038       41279.            0.06736  0.99773  0.00000
              -46422.           -0.00000 -0.00000  1.00000
             -0.68597E+07        0.99773 -0.06736 -0.00000
    1039       25505.           -0.06566  0.99784  0.00000
               4906.2            0.00000 -0.00000  1.00000
             -0.64682E+07        0.99784  0.06566  0.00000
    1040       85576.           -0.11622  0.99322  0.00000
               9449.6            0.00000 -0.00000  1.00000
             -0.69457E+07        0.99322  0.11622  0.00000
    1041      0.15660E+06       -0.14626  0.98925  0.00000
               9278.8            0.00000 -0.00000  1.00000
             -0.73871E+07        0.98925  0.14626  0.00000
    1042      0.21751E+06       -0.15689  0.98762  0.00000
               6771.6            0.00000 -0.00000  1.00000
             -0.77810E+07        0.98762  0.15689  0.00000
    1043      0.26760E+06       -0.15078  0.98857  0.00000
               8044.0            0.00000 -0.00000  1.00000
             -0.81276E+07        0.98857  0.15078  0.00000
    1044      0.31042E+06       -0.13240  0.99120  0.00000
               10137.            0.00000 -0.00000  1.00000
             -0.84292E+07        0.99120  0.13240  0.00000
    1045      0.34693E+06       -0.10550  0.99442  0.00000
               12274.            0.00000 -0.00000  1.00000
             -0.86787E+07        0.99442  0.10550  0.00000
    1046      0.37536E+06       -0.07306  0.99733  0.00000
               14171.            0.00000 -0.00000  1.00000
             -0.88674E+07        0.99733  0.07306 -0.00000
    1047      0.39367E+06       -0.03730  0.99930  0.00000
               15377.            0.00000 -0.00000  1.00000
             -0.89852E+07        0.99930  0.03730 -0.00000
    1048      0.39995E+06        0.00000  1.00000  0.00000
               15861.            0.00000  0.00000  1.00000
             -0.90254E+07        1.00000  0.00000  0.00000
    1049      0.39367E+06        0.03730  0.99930  0.00000
               15377.            0.00000 -0.00000  1.00000
             -0.89852E+07        0.99930 -0.03730 -0.00000
    1050      0.37536E+06        0.07306  0.99733  0.00000
               14171.            0.00000 -0.00000  1.00000
             -0.88674E+07        0.99733 -0.07306 -0.00000
    1051      0.34693E+06        0.10550  0.99442  0.00000
               12274.            0.00000 -0.00000  1.00000
             -0.86787E+07        0.99442 -0.10550 -0.00000
    1052      0.31042E+06        0.13240  0.99120  0.00000
               10137.           -0.00000 -0.00000  1.00000
             -0.84292E+07        0.99120 -0.13240 -0.00000
    1053      0.26760E+06        0.15078  0.98857  0.00000
               8044.0           -0.00000 -0.00000  1.00000
             -0.81276E+07        0.98857 -0.15078 -0.00000
    1054      0.21751E+06        0.15689  0.98762  0.00000
               6771.6           -0.00000 -0.00000  1.00000
             -0.77810E+07        0.98762 -0.15689 -0.00000

          ***** POST1 NODAL STRESS PRINCIPAL DIRECTIONS *****

  LOAD STEP     1  SUBSTEP=     1
  TIME=    1.0000         LOAD CASE=  0

  NODE      PRINCIPAL STRESS     DIRECTION VECTOR (X,Y,Z)
             (S1,S2,S3)
    1055      0.15660E+06        0.14626  0.98925  0.00000
               9278.8           -0.00000 -0.00000  1.00000
             -0.73871E+07        0.98925 -0.14626 -0.00000
    1056       85576.            0.11622  0.99322  0.00000
               9449.6           -0.00000 -0.00000  1.00000
             -0.69457E+07        0.99322 -0.11622 -0.00000
    1057       25505.            0.06566  0.99784  0.00000
               4906.2           -0.00000 -0.00000  1.00000
             -0.64682E+07        0.99784 -0.06566 -0.00000
    1058       78177.           -0.07331  0.99731  0.00000
              -19891.            0.00000 -0.00000  1.00000
             -0.60151E+07        0.99731  0.07331  0.00000
    1059      0.19551E+06       -0.12486  0.99217  0.00000
               5.3744            0.00000 -0.00000  1.00000
             -0.65920E+07        0.99217  0.12486  0.00000
    1060      0.35408E+06       -0.15388  0.98809  0.00000
              -9711.7            0.00000 -0.00000  1.00000
             -0.71565E+07        0.98809  0.15388  0.00000
    1061      0.49087E+06       -0.16263  0.98669  0.00000
              -5645.0            0.00000 -0.00000  1.00000
             -0.76985E+07        0.98669  0.16263  0.00000
    1062      0.60879E+06       -0.15560  0.98782  0.00000
              -6204.3            0.00000 -0.00000  1.00000
             -0.81795E+07        0.98782  0.15560  0.00000
    1063      0.70240E+06       -0.13659  0.99063  0.00000
              -4059.7            0.00000 -0.00000  1.00000
             -0.85949E+07        0.99063  0.13659  0.00000
    1064      0.77558E+06       -0.10903  0.99404  0.00000
              -2207.6            0.00000 -0.00000  1.00000
             -0.89334E+07        0.99404  0.10903 -0.00000
    1065      0.82847E+06       -0.07565  0.99713  0.00000
              -250.56            0.00000 -0.00000  1.00000
             -0.91858E+07        0.99713  0.07565 -0.00000
    1066      0.86088E+06       -0.03868  0.99925  0.00000
               1010.2            0.00000 -0.00000  1.00000
             -0.93420E+07        0.99925  0.03868 -0.00000
    1067      0.87186E+06        0.00000  1.00000  0.00000
               1383.6            0.00000  0.00000  1.00000
             -0.93949E+07        1.00000  0.00000  0.00000
    1068      0.86088E+06        0.03868  0.99925  0.00000
               1010.2            0.00000 -0.00000  1.00000
             -0.93420E+07        0.99925 -0.03868 -0.00000
    1069      0.82847E+06        0.07565  0.99713  0.00000
              -250.56            0.00000 -0.00000  1.00000
             -0.91858E+07        0.99713 -0.07565 -0.00000
    1070      0.77558E+06        0.10903  0.99404  0.00000
              -2207.6            0.00000 -0.00000  1.00000
             -0.89334E+07        0.99404 -0.10903 -0.00000
    1071      0.70240E+06        0.13659  0.99063  0.00000
              -4059.7            0.00000 -0.00000  1.00000
             -0.85949E+07        0.99063 -0.13659 -0.00000

          ***** POST1 NODAL STRESS PRINCIPAL DIRECTIONS *****

  LOAD STEP     1  SUBSTEP=     1
  TIME=    1.0000         LOAD CASE=  0

  NODE      PRINCIPAL STRESS     DIRECTION VECTOR (X,Y,Z)
             (S1,S2,S3)
    1072      0.60879E+06        0.15560  0.98782  0.00000
              -6204.3            0.00000 -0.00000  1.00000
             -0.81795E+07        0.98782 -0.15560 -0.00000
    1073      0.49087E+06        0.16263  0.98669  0.00000
              -5645.0            0.00000 -0.00000  1.00000
             -0.76985E+07        0.98669 -0.16263 -0.00000
    1074      0.35408E+06        0.15388  0.98809  0.00000
              -9711.7            0.00000 -0.00000  1.00000
             -0.71565E+07        0.98809 -0.15388 -0.00000
    1075      0.19551E+06        0.12486  0.99217  0.00000
               5.3744           -0.00000 -0.00000  1.00000
             -0.65920E+07        0.99217 -0.12486 -0.00000
    1076       78177.            0.07331  0.99731  0.00000
              -19891.            0.00000 -0.00000  1.00000
             -0.60151E+07        0.99731 -0.07331 -0.00000
    1077       99110.           -0.08820  0.99610  0.00000
              -13797.            0.00000 -0.00000  1.00000
             -0.55754E+07        0.99610  0.08820  0.00000
    1078      0.28036E+06       -0.14448  0.98951  0.00000
              -33.359            0.00000 -0.00000  1.00000
             -0.62466E+07        0.98951  0.14448  0.00000
    1079      0.50373E+06       -0.17156  0.98517  0.00000
              -2223.3            0.00000 -0.00000  1.00000
             -0.69488E+07        0.98517  0.17156  0.00000
    1080      0.70978E+06       -0.17728  0.98416  0.00000
              -269.57            0.00000 -0.00000  1.00000
             -0.76329E+07        0.98416  0.17728  0.00000
    1081      0.88774E+06       -0.16738  0.98589  0.00000
               465.36           -0.00000 -0.00000  1.00000
             -0.82538E+07        0.98589  0.16738  0.00000
    1082      0.10319E+07       -0.14600  0.98929  0.00000
               2719.8            0.00000 -0.00000  1.00000
             -0.87940E+07        0.98929  0.14600  0.00000
    1083      0.11440E+07       -0.11623  0.99322  0.00000
               5089.0            0.00000 -0.00000  1.00000
             -0.92357E+07        0.99322  0.11623 -0.00000
    1084      0.12245E+07       -0.08059  0.99675  0.00000
               7347.9            0.00000 -0.00000  1.00000
             -0.95649E+07        0.99675  0.08059 -0.00000
    1085      0.12732E+07       -0.04121  0.99915  0.00000
               9049.0            0.00000 -0.00000  1.00000
             -0.97686E+07        0.99915  0.04121 -0.00000
    1086      0.12894E+07        0.00000  1.00000  0.00000
               9910.5            0.00000  0.00000  1.00000
             -0.98378E+07        1.00000  0.00000  0.00000
    1087      0.12732E+07        0.04121  0.99915  0.00000
               9049.0            0.00000 -0.00000  1.00000
             -0.97686E+07        0.99915 -0.04121 -0.00000
    1088      0.12245E+07        0.08059  0.99675  0.00000
               7347.9            0.00000 -0.00000  1.00000
             -0.95649E+07        0.99675 -0.08059 -0.00000

          ***** POST1 NODAL STRESS PRINCIPAL DIRECTIONS *****

  LOAD STEP     1  SUBSTEP=     1
  TIME=    1.0000         LOAD CASE=  0

  NODE      PRINCIPAL STRESS     DIRECTION VECTOR (X,Y,Z)
             (S1,S2,S3)
    1089      0.11440E+07        0.11623  0.99322  0.00000
               5089.0            0.00000 -0.00000  1.00000
             -0.92357E+07        0.99322 -0.11623 -0.00000
    1090      0.10319E+07        0.14600  0.98929  0.00000
               2719.8            0.00000 -0.00000  1.00000
             -0.87940E+07        0.98929 -0.14600 -0.00000
    1091      0.88774E+06        0.16738  0.98589  0.00000
               465.36            0.00000 -0.00000  1.00000
             -0.82538E+07        0.98589 -0.16738 -0.00000
    1092      0.70978E+06        0.17728  0.98416  0.00000
              -269.57            0.00000 -0.00000  1.00000
             -0.76329E+07        0.98416 -0.17728 -0.00000
    1093      0.50373E+06        0.17156  0.98517  0.00000
              -2223.3            0.00000 -0.00000  1.00000
             -0.69488E+07        0.98517 -0.17156 -0.00000
    1094      0.28036E+06        0.14448  0.98951  0.00000
              -33.359           -0.00000 -0.00000  1.00000
             -0.62466E+07        0.98951 -0.14448 -0.00000
    1095       99110.            0.08820  0.99610  0.00000
              -13797.            0.00000 -0.00000  1.00000
             -0.55754E+07        0.99610 -0.08820 -0.00000
    1096      0.13581E+06       -0.11116  0.99380  0.00000
              -20725.           -0.00000 -0.00000  1.00000
             -0.50737E+07        0.99380  0.11116  0.00000
    1097      0.36933E+06       -0.17283  0.98495  0.00000
              -1188.9           -0.00000 -0.00000  1.00000
             -0.58856E+07        0.98495  0.17283  0.00000
    1098      0.65256E+06       -0.19760  0.98028  0.00000
              -6980.4            0.00000 -0.00000  1.00000
             -0.67318E+07        0.98028  0.19760  0.00000
    1099      0.91200E+06       -0.19910  0.97998  0.00000
              -2953.4            0.00000 -0.00000  1.00000
             -0.75675E+07        0.97998  0.19910  0.00000
    1100      0.11418E+07       -0.18522  0.98270  0.00000
              -2345.3            0.00000 -0.00000  1.00000
             -0.83362E+07        0.98270  0.18522  0.00000
    1101      0.13325E+07       -0.16024  0.98708  0.00000
               619.32            0.00000 -0.00000  1.00000
             -0.90142E+07        0.98708  0.16024  0.00000
    1102      0.14841E+07       -0.12705  0.99190  0.00000
               3460.2            0.00000 -0.00000  1.00000
             -0.95749E+07        0.99190  0.12705  0.00000
    1103      0.15942E+07       -0.08793  0.99613  0.00000
               6966.8            0.00000 -0.00000  1.00000
             -0.99966E+07        0.99613  0.08793 -0.00000
    1104      0.16617E+07       -0.04493  0.99899  0.00000
               9150.0            0.00000 -0.00000  1.00000
             -0.10259E+08        0.99899  0.04493 -0.00000
    1105      0.16848E+07        0.00000  1.00000  0.00000
               9421.9            0.00000  0.00000  1.00000
             -0.10347E+08        1.00000  0.00000  0.00000

          ***** POST1 NODAL STRESS PRINCIPAL DIRECTIONS *****

  LOAD STEP     1  SUBSTEP=     1
  TIME=    1.0000         LOAD CASE=  0

  NODE      PRINCIPAL STRESS     DIRECTION VECTOR (X,Y,Z)
             (S1,S2,S3)
    1106      0.16617E+07        0.04493  0.99899 -0.00000
               9150.0            0.00000  0.00000  1.00000
             -0.10259E+08        0.99899 -0.04493 -0.00000
    1107      0.15942E+07        0.08793  0.99613  0.00000
               6966.8            0.00000 -0.00000  1.00000
             -0.99966E+07        0.99613 -0.08793 -0.00000
    1108      0.14841E+07        0.12705  0.99190  0.00000
               3460.2            0.00000 -0.00000  1.00000
             -0.95749E+07        0.99190 -0.12705 -0.00000
    1109      0.13325E+07        0.16024  0.98708  0.00000
               619.32            0.00000 -0.00000  1.00000
             -0.90142E+07        0.98708 -0.16024 -0.00000
    1110      0.11418E+07        0.18522  0.98270  0.00000
              -2345.3            0.00000 -0.00000  1.00000
             -0.83362E+07        0.98270 -0.18522 -0.00000
    1111      0.91200E+06        0.19910  0.97998  0.00000
              -2953.4            0.00000 -0.00000  1.00000
             -0.75675E+07        0.97998 -0.19910 -0.00000
    1112      0.65256E+06        0.19760  0.98028  0.00000
              -6980.4            0.00000 -0.00000  1.00000
             -0.67318E+07        0.98028 -0.19760 -0.00000
    1113      0.36933E+06        0.17283  0.98495  0.00000
              -1188.9            0.00000 -0.00000  1.00000
             -0.58856E+07        0.98495 -0.17283 -0.00000
    1114      0.13581E+06        0.11116  0.99380  0.00000
              -20725.            0.00000 -0.00000  1.00000
             -0.50737E+07        0.99380 -0.11116 -0.00000
    1115      0.17197E+06       -0.14297  0.98973  0.00000
              -22797.           -0.00000 -0.00000  1.00000
             -0.45174E+07        0.98973  0.14297  0.00000
    1116      0.45622E+06       -0.20947  0.97782  0.00000
              -1223.2           -0.00000 -0.00000  1.00000
             -0.55010E+07        0.97782  0.20947  0.00000
    1117      0.78374E+06       -0.23041  0.97309  0.00000
              -7483.3           -0.00000 -0.00000  1.00000
             -0.65104E+07        0.97309  0.23041  0.00000
    1118      0.10835E+07       -0.22703  0.97389  0.00000
              -3691.2            0.00000 -0.00000  1.00000
             -0.75079E+07        0.97389  0.22703  0.00000
    1119      0.13548E+07       -0.20856  0.97801  0.00000
              -2944.3            0.00000 -0.00000  1.00000
             -0.84380E+07        0.97801  0.20856  0.00000
    1120      0.15877E+07       -0.17922  0.98381  0.00000
               714.88            0.00000 -0.00000  1.00000
             -0.92725E+07        0.98381  0.17922 -0.00000
    1121      0.17785E+07       -0.14163  0.98992  0.00000
               5336.0            0.00000 -0.00000  1.00000
             -0.99746E+07        0.98992  0.14163  0.00000
    1122      0.19216E+07       -0.09789  0.99520  0.00000
               9171.3           -0.00000 -0.00000  1.00000
             -0.10509E+08        0.99520  0.09789  0.00000

          ***** POST1 NODAL STRESS PRINCIPAL DIRECTIONS *****

  LOAD STEP     1  SUBSTEP=     1
  TIME=    1.0000         LOAD CASE=  0

  NODE      PRINCIPAL STRESS     DIRECTION VECTOR (X,Y,Z)
             (S1,S2,S3)
    1123      0.20098E+07       -0.04999  0.99875  0.00000
               12845.            0.00000 -0.00000  1.00000
             -0.10845E+08        0.99875  0.04999 -0.00000
    1124      0.20388E+07        0.00000  1.00000  0.00000
               15634.            0.00000  0.00000  1.00000
             -0.10960E+08        1.00000  0.00000  0.00000
    1125      0.20098E+07        0.04999  0.99875 -0.00000
               12845.            0.00000  0.00000  1.00000
             -0.10845E+08        0.99875 -0.04999 -0.00000
    1126      0.19216E+07        0.09789  0.99520  0.00000
               9171.3            0.00000 -0.00000  1.00000
             -0.10509E+08        0.99520 -0.09789 -0.00000
    1127      0.17785E+07        0.14163  0.98992  0.00000
               5336.0            0.00000 -0.00000  1.00000
             -0.99746E+07        0.98992 -0.14163 -0.00000
    1128      0.15877E+07        0.17922  0.98381  0.00000
               714.88            0.00000 -0.00000  1.00000
             -0.92725E+07        0.98381 -0.17922 -0.00000
    1129      0.13548E+07        0.20856  0.97801  0.00000
              -2944.3            0.00000 -0.00000  1.00000
             -0.84380E+07        0.97801 -0.20856 -0.00000
    1130      0.10835E+07        0.22703  0.97389  0.00000
              -3691.2            0.00000 -0.00000  1.00000
             -0.75079E+07        0.97389 -0.22703 -0.00000
    1131      0.78374E+06        0.23041  0.97309  0.00000
              -7483.3            0.00000 -0.00000  1.00000
             -0.65104E+07        0.97309 -0.23041 -0.00000
    1132      0.45622E+06        0.20947  0.97782  0.00000
              -1223.2            0.00000 -0.00000  1.00000
             -0.55010E+07        0.97782 -0.20947 -0.00000
    1133      0.17197E+06        0.14297  0.98973  0.00000
              -22797.            0.00000 -0.00000  1.00000
             -0.45174E+07        0.98973 -0.14297 -0.00000
    1134      0.21603E+06       -0.18574  0.98260  0.00000
              -27274.           -0.00000 -0.00000  1.00000
             -0.38950E+07        0.98260  0.18574  0.00000
    1135      0.53748E+06       -0.25322  0.96741 -0.00000
               187.39           -0.00000  0.00000  1.00000
             -0.50843E+07        0.96741  0.25322  0.00000
    1136      0.89305E+06       -0.26879  0.96320  0.00000
              -10582.           -0.00000 -0.00000  1.00000
             -0.62668E+07        0.96320  0.26879  0.00000
    1137      0.12165E+07       -0.26028  0.96553  0.00000
              -6485.3            0.00000 -0.00000  1.00000
             -0.74391E+07        0.96553  0.26028  0.00000
    1138      0.15204E+07       -0.23719  0.97146  0.00000
              -6306.1            0.00000 -0.00000  1.00000
             -0.85494E+07        0.97146  0.23719  0.00000
    1139      0.17924E+07       -0.20314  0.97915  0.00000
              -1205.0            0.00000 -0.00000  1.00000
             -0.95681E+07        0.97915  0.20314  0.00000

          ***** POST1 NODAL STRESS PRINCIPAL DIRECTIONS *****

  LOAD STEP     1  SUBSTEP=     1
  TIME=    1.0000         LOAD CASE=  0

  NODE      PRINCIPAL STRESS     DIRECTION VECTOR (X,Y,Z)
             (S1,S2,S3)
    1140      0.20258E+07       -0.16038  0.98705  0.00000
               3813.1            0.00000 -0.00000  1.00000
             -0.10443E+08        0.98705  0.16038  0.00000
    1141      0.22036E+07       -0.11082  0.99384  0.00000
               12737.            0.00000 -0.00000  1.00000
             -0.11124E+08        0.99384  0.11082 -0.00000
    1142      0.23180E+07       -0.05661  0.99840  0.00000
               17542.           -0.00000 -0.00000  1.00000
             -0.11555E+08        0.99840  0.05661  0.00000
    1143      0.23597E+07        0.00000  1.00000  0.00000
               15896.            0.00000  0.00000  1.00000
             -0.11701E+08        1.00000  0.00000  0.00000
    1144      0.23180E+07        0.05661  0.99840 -0.00000
               17542.            0.00000  0.00000  1.00000
             -0.11555E+08        0.99840 -0.05661 -0.00000
    1145      0.22036E+07        0.11082  0.99384  0.00000
               12737.            0.00000 -0.00000  1.00000
             -0.11124E+08        0.99384 -0.11082 -0.00000
    1146      0.20258E+07        0.16038  0.98705  0.00000
               3813.1            0.00000 -0.00000  1.00000
             -0.10443E+08        0.98705 -0.16038 -0.00000
    1147      0.17924E+07        0.20314  0.97915  0.00000
              -1205.0            0.00000 -0.00000  1.00000
             -0.95681E+07        0.97915 -0.20314 -0.00000
    1148      0.15204E+07        0.23719  0.97146  0.00000
              -6306.1            0.00000 -0.00000  1.00000
             -0.85494E+07        0.97146 -0.23719 -0.00000
    1149      0.12165E+07        0.26028  0.96553  0.00000
              -6485.3            0.00000 -0.00000  1.00000
             -0.74391E+07        0.96553 -0.26028 -0.00000
    1150      0.89305E+06        0.26879  0.96320  0.00000
              -10582.            0.00000 -0.00000  1.00000
             -0.62668E+07        0.96320 -0.26879 -0.00000
    1151      0.53748E+06        0.25322  0.96741  0.00000
               187.39            0.00000 -0.00000  1.00000
             -0.50843E+07        0.96741 -0.25322 -0.00000
    1152      0.21603E+06        0.18574  0.98260  0.00000
              -27274.            0.00000 -0.00000  1.00000
             -0.38950E+07        0.98260 -0.18574 -0.00000
    1153      0.26329E+06       -0.24218  0.97023  0.00000
              -30707.           -0.00000 -0.00000  1.00000
             -0.32202E+07        0.97023  0.24218  0.00000
    1154      0.59839E+06       -0.30316  0.95294 -0.00000
               2767.1           -0.00000  0.00000  1.00000
             -0.46267E+07        0.95294  0.30316  0.00000
    1155      0.95695E+06       -0.31195  0.95010  0.00000
              -13583.           -0.00000 -0.00000  1.00000
             -0.59828E+07        0.95010  0.31195  0.00000
    1156      0.12871E+07       -0.29885  0.95430  0.00000
              -9981.8           -0.00000 -0.00000  1.00000
             -0.73397E+07        0.95430  0.29885  0.00000

          ***** POST1 NODAL STRESS PRINCIPAL DIRECTIONS *****

  LOAD STEP     1  SUBSTEP=     1
  TIME=    1.0000         LOAD CASE=  0

  NODE      PRINCIPAL STRESS     DIRECTION VECTOR (X,Y,Z)
             (S1,S2,S3)
    1157      0.16166E+07       -0.27167  0.96239  0.00000
              -11162.            0.00000 -0.00000  1.00000
             -0.86546E+07        0.96239  0.27167  0.00000
    1158      0.19298E+07       -0.23287  0.97251  0.00000
              -6075.9            0.00000 -0.00000  1.00000
             -0.98966E+07        0.97251  0.23287 -0.00000
    1159      0.22092E+07       -0.18413  0.98290  0.00000
               5026.2            0.00000 -0.00000  1.00000
             -0.10996E+08        0.98290  0.18413 -0.00000
    1160      0.24373E+07       -0.12750  0.99184  0.00000
               11168.            0.00000 -0.00000  1.00000
             -0.11866E+08        0.99184  0.12750 -0.00000
    1161      0.25812E+07       -0.06518  0.99787  0.00000
               21198.            0.00000 -0.00000  1.00000
             -0.12431E+08        0.99787  0.06518 -0.00000
    1162      0.26250E+07        0.00000  1.00000  0.00000
               34012.            0.00000  0.00000  1.00000
             -0.12633E+08        1.00000  0.00000  0.00000
    1163      0.25812E+07        0.06518  0.99787 -0.00000
               21198.            0.00000  0.00000  1.00000
             -0.12431E+08        0.99787 -0.06518 -0.00000
    1164      0.24373E+07        0.12750  0.99184 -0.00000
               11168.            0.00000  0.00000  1.00000
             -0.11866E+08        0.99184 -0.12750 -0.00000
    1165      0.22092E+07        0.18413  0.98290  0.00000
               5026.2            0.00000 -0.00000  1.00000
             -0.10996E+08        0.98290 -0.18413 -0.00000
    1166      0.19298E+07        0.23287  0.97251  0.00000
              -6075.9            0.00000 -0.00000  1.00000
             -0.98966E+07        0.97251 -0.23287 -0.00000
    1167      0.16166E+07        0.27167  0.96239  0.00000
              -11162.            0.00000 -0.00000  1.00000
             -0.86546E+07        0.96239 -0.27167 -0.00000
    1168      0.12871E+07        0.29885  0.95430  0.00000
              -9981.8            0.00000 -0.00000  1.00000
             -0.73397E+07        0.95430 -0.29885 -0.00000
    1169      0.95695E+06        0.31195  0.95010  0.00000
              -13583.            0.00000 -0.00000  1.00000
             -0.59828E+07        0.95010 -0.31195 -0.00000
    1170      0.59839E+06        0.30316  0.95294 -0.00000
               2767.1            0.00000  0.00000  1.00000
             -0.46267E+07        0.95294 -0.30316 -0.00000
    1171      0.26329E+06        0.24218  0.97023  0.00000
              -30707.            0.00000 -0.00000  1.00000
             -0.32202E+07        0.97023 -0.24218 -0.00000
    1172      0.31010E+06       -0.31615  0.94871  0.00000
              -33523.           -0.00000 -0.00000  1.00000
             -0.25143E+07        0.94871  0.31615  0.00000
    1173      0.61574E+06       -0.35822  0.93364 -0.00000
               6931.5           -0.00000  0.00000  1.00000
             -0.41165E+07        0.93364  0.35822 -0.00000

          ***** POST1 NODAL STRESS PRINCIPAL DIRECTIONS *****

  LOAD STEP     1  SUBSTEP=     1
  TIME=    1.0000         LOAD CASE=  0

  NODE      PRINCIPAL STRESS     DIRECTION VECTOR (X,Y,Z)
             (S1,S2,S3)
    1174      0.94636E+06       -0.35990  0.93299  0.00000
              -16732.           -0.00000 -0.00000  1.00000
             -0.56281E+07        0.93299  0.35990  0.00000
    1175      0.12665E+07       -0.34374  0.93907 -0.00000
              -14925.            0.00000  0.00000  1.00000
             -0.71730E+07        0.93907  0.34374 -0.00000
    1176      0.16178E+07       -0.31358  0.94956 -0.00000
              -19098.           -0.00000  0.00000  1.00000
             -0.87221E+07        0.94956  0.31358  0.00000
    1177      0.19757E+07       -0.27009  0.96284  0.00000
              -10605.            0.00000 -0.00000  1.00000
             -0.10245E+08        0.96284  0.27009 -0.00000
    1178      0.23217E+07       -0.21463  0.97670  0.00000
              -4585.1            0.00000 -0.00000  1.00000
             -0.11637E+08        0.97670  0.21463 -0.00000
    1179      0.25967E+07       -0.14895  0.98884  0.00000
               23846.            0.00000 -0.00000  1.00000
             -0.12789E+08        0.98884  0.14895 -0.00000
    1180      0.27899E+07       -0.07636  0.99708  0.00000
               35747.            0.00000 -0.00000  1.00000
             -0.13542E+08        0.99708  0.07636 -0.00000
    1181      0.28730E+07        0.00000  1.00000  0.00000
               18064.            0.00000  0.00000  1.00000
             -0.13791E+08        1.00000  0.00000  0.00000
    1182      0.27899E+07        0.07636  0.99708 -0.00000
               35747.            0.00000  0.00000  1.00000
             -0.13542E+08        0.99708 -0.07636 -0.00000
    1183      0.25967E+07        0.14895  0.98884  0.00000
               23846.            0.00000 -0.00000  1.00000
             -0.12789E+08        0.98884 -0.14895 -0.00000
    1184      0.23217E+07        0.21463  0.97670  0.00000
              -4585.1            0.00000 -0.00000  1.00000
             -0.11637E+08        0.97670 -0.21463 -0.00000
    1185      0.19757E+07        0.27009  0.96284  0.00000
              -10605.            0.00000 -0.00000  1.00000
             -0.10245E+08        0.96284 -0.27009 -0.00000
    1186      0.16178E+07        0.31358  0.94956  0.00000
              -19098.            0.00000 -0.00000  1.00000
             -0.87221E+07        0.94956 -0.31358 -0.00000
    1187      0.12665E+07        0.34374  0.93907  0.00000
              -14925.            0.00000 -0.00000  1.00000
             -0.71730E+07        0.93907 -0.34374 -0.00000
    1188      0.94636E+06        0.35990  0.93299 -0.00000
              -16732.            0.00000 -0.00000  1.00000
             -0.56281E+07        0.93299 -0.35990 -0.00000
    1189      0.61574E+06        0.35822  0.93364 -0.00000
               6931.5            0.00000 -0.00000  1.00000
             -0.41165E+07        0.93364 -0.35822 -0.00000
    1190      0.31010E+06        0.31615  0.94871  0.00000
              -33523.            0.00000 -0.00000  1.00000
             -0.25143E+07        0.94871 -0.31615 -0.00000

          ***** POST1 NODAL STRESS PRINCIPAL DIRECTIONS *****

  LOAD STEP     1  SUBSTEP=     1
  TIME=    1.0000         LOAD CASE=  0

  NODE      PRINCIPAL STRESS     DIRECTION VECTOR (X,Y,Z)
             (S1,S2,S3)
    1191      0.34666E+06       -0.41292  0.91077  0.00000
              -34573.           -0.00000 -0.00000  1.00000
             -0.18133E+07        0.91077  0.41292  0.00000
    1192      0.56008E+06       -0.41803  0.90843 -0.00000
               13147.           -0.00000  0.00000  1.00000
             -0.35394E+07        0.90843  0.41803 -0.00000
    1193      0.82977E+06       -0.41383  0.91036 -0.00000
              -19621.           -0.00000  0.00000  1.00000
             -0.51634E+07        0.91036  0.41383 -0.00000
    1194      0.11240E+07       -0.39723  0.91772 -0.00000
              -20584.           -0.00000  0.00000  1.00000
             -0.68875E+07        0.91772  0.39723 -0.00000
    1195      0.14957E+07       -0.36572  0.93073 -0.00000
              -28901.           -0.00000  0.00000  1.00000
             -0.87015E+07        0.93073  0.36572 -0.00000
    1196      0.19164E+07       -0.31786  0.94814  0.00000
              -30171.            0.00000 -0.00000  1.00000
             -0.10575E+08        0.94814  0.31786 -0.00000
    1197      0.23275E+07       -0.25400  0.96720  0.00000
               1322.7            0.00000 -0.00000  1.00000
             -0.12389E+08        0.96720  0.25400 -0.00000
    1198      0.27140E+07       -0.17744  0.98413  0.00000
               1094.1            0.00000 -0.00000  1.00000
             -0.13912E+08        0.98413  0.17744 -0.00000
    1199      0.29526E+07       -0.09102  0.99585  0.00000
               33441.            0.00000 -0.00000  1.00000
             -0.14965E+08        0.99585  0.09102 -0.00000
    1200      0.29991E+07        0.00000  1.00000  0.00000
              0.10376E+06        0.00000  0.00000  1.00000
             -0.15381E+08        1.00000  0.00000  0.00000
    1201      0.29526E+07        0.09102  0.99585 -0.00000
               33441.            0.00000  0.00000  1.00000
             -0.14965E+08        0.99585 -0.09102  0.00000
    1202      0.27140E+07        0.17744  0.98413 -0.00000
               1094.1            0.00000  0.00000  1.00000
             -0.13912E+08        0.98413 -0.17744  0.00000
    1203      0.23275E+07        0.25400  0.96720  0.00000
               1322.7            0.00000 -0.00000  1.00000
             -0.12389E+08        0.96720 -0.25400 -0.00000
    1204      0.19164E+07        0.31786  0.94814  0.00000
              -30171.           -0.00000 -0.00000  1.00000
             -0.10575E+08        0.94814 -0.31786 -0.00000
    1205      0.14957E+07        0.36572  0.93073  0.00000
              -28901.            0.00000 -0.00000  1.00000
             -0.87015E+07        0.93073 -0.36572 -0.00000
    1206      0.11240E+07        0.39723  0.91772  0.00000
              -20584.            0.00000 -0.00000  1.00000
             -0.68875E+07        0.91772 -0.39723 -0.00000
    1207      0.82977E+06        0.41383  0.91036  0.00000
              -19621.            0.00000 -0.00000  1.00000
             -0.51634E+07        0.91036 -0.41383 -0.00000

          ***** POST1 NODAL STRESS PRINCIPAL DIRECTIONS *****

  LOAD STEP     1  SUBSTEP=     1
  TIME=    1.0000         LOAD CASE=  0

  NODE      PRINCIPAL STRESS     DIRECTION VECTOR (X,Y,Z)
             (S1,S2,S3)
    1208      0.56008E+06        0.41803  0.90843 -0.00000
               13147.            0.00000  0.00000  1.00000
             -0.35394E+07        0.90843 -0.41803 -0.00000
    1209      0.34666E+06        0.41292  0.91077  0.00000
              -34573.            0.00000 -0.00000  1.00000
             -0.18133E+07        0.91077 -0.41292 -0.00000
    1210      0.36038E+06       -0.54120  0.84090  0.00000
              -32505.           -0.00000 -0.00000  1.00000
             -0.11634E+07        0.84090  0.54120  0.00000
    1211      0.40775E+06       -0.48390  0.87512 -0.00000
               20922.           -0.00000  0.00000  1.00000
             -0.28829E+07        0.87512  0.48390 -0.00000
    1212      0.58525E+06       -0.47654  0.87915 -0.00000
              -18137.           -0.00000  0.00000  1.00000
             -0.45490E+07        0.87915  0.47654  0.00000
    1213      0.83930E+06       -0.46308  0.88632 -0.00000
              -21657.           -0.00000  0.00000  1.00000
             -0.64196E+07        0.88632  0.46308 -0.00000
    1214      0.12336E+07       -0.43255  0.90161 -0.00000
              -45847.           -0.00000  0.00000  1.00000
             -0.85155E+07        0.90161  0.43255 -0.00000
    1215      0.17060E+07       -0.38013  0.92493 -0.00000
              -31497.            0.00000  0.00000  1.00000
             -0.10843E+08        0.92493  0.38013 -0.00000
    1216      0.22562E+07       -0.30715  0.95166  0.00000
              -52866.            0.00000 -0.00000  1.00000
             -0.13203E+08        0.95166  0.30715 -0.00000
    1217      0.26743E+07       -0.21480  0.97666  0.00000
               59871.            0.00000 -0.00000  1.00000
             -0.15391E+08        0.97666  0.21480  0.00000
    1218      0.30320E+07       -0.11086  0.99384  0.00000
               92220.            0.00000 -0.00000  1.00000
             -0.16901E+08        0.99384  0.11086 -0.00000
    1219      0.32558E+07        0.00000  1.00000  0.00000
              -34327.            0.00000  0.00000  1.00000
             -0.17351E+08        1.00000  0.00000  0.00000
    1220      0.30320E+07        0.11086  0.99384 -0.00000
               92220.            0.00000  0.00000  1.00000
             -0.16901E+08        0.99384 -0.11086 -0.00000
    1221      0.26743E+07        0.21480  0.97666  0.00000
               59871.            0.00000 -0.00000  1.00000
             -0.15391E+08        0.97666 -0.21480 -0.00000
    1222      0.22562E+07        0.30715  0.95166  0.00000
              -52866.           -0.00000 -0.00000  1.00000
             -0.13203E+08        0.95166 -0.30715 -0.00000
    1223      0.17060E+07        0.38013  0.92493  0.00000
              -31497.           -0.00000 -0.00000  1.00000
             -0.10843E+08        0.92493 -0.38013 -0.00000
    1224      0.12336E+07        0.43255  0.90161  0.00000
              -45847.           -0.00000 -0.00000  1.00000
             -0.85155E+07        0.90161 -0.43255 -0.00000

          ***** POST1 NODAL STRESS PRINCIPAL DIRECTIONS *****

  LOAD STEP     1  SUBSTEP=     1
  TIME=    1.0000         LOAD CASE=  0

  NODE      PRINCIPAL STRESS     DIRECTION VECTOR (X,Y,Z)
             (S1,S2,S3)
    1225      0.83930E+06        0.46308  0.88632  0.00000
              -21657.            0.00000 -0.00000  1.00000
             -0.64196E+07        0.88632 -0.46308 -0.00000
    1226      0.58525E+06        0.47654  0.87915 -0.00000
              -18137.            0.00000  0.00000  1.00000
             -0.45490E+07        0.87915 -0.47654 -0.00000
    1227      0.40775E+06        0.48390  0.87512 -0.00000
               20922.            0.00000  0.00000  1.00000
             -0.28829E+07        0.87512 -0.48390 -0.00000
    1228      0.36038E+06        0.54120  0.84090  0.00000
              -32505.            0.00000 -0.00000  1.00000
             -0.11634E+07        0.84090 -0.54120 -0.00000
    1229      0.34733E+06        0.71757 -0.69649 -0.00000
              -26983.            0.00000 -0.00000  1.00000
             -0.62097E+06        0.69649  0.71757  0.00000
    1230      0.16071E+06       -0.56150  0.82748 -0.00000
               28653.           -0.00000  0.00000  1.00000
             -0.21480E+07        0.82748  0.56150  0.00000
    1231      0.23071E+06       -0.55296  0.83321 -0.00000
              -10467.           -0.00000  0.00000  1.00000
             -0.37547E+07        0.83321  0.55296  0.00000
    1232      0.44111E+06       -0.54613  0.83770 -0.00000
              -25366.           -0.00000  0.00000  1.00000
             -0.56963E+07        0.83770  0.54613  0.00000
    1233      0.82335E+06       -0.51868  0.85497 -0.00000
              -38552.           -0.00000  0.00000  1.00000
             -0.80599E+07        0.85497  0.51868  0.00000
    1234      0.14127E+07       -0.46408  0.88579  0.00000
             -0.11679E+06        0.00000 -0.00000  1.00000
             -0.10881E+08        0.88579  0.46408 -0.00000
    1235      0.19738E+07       -0.37730  0.92609  0.00000
              -73.874            0.00000 -0.00000  1.00000
             -0.14112E+08        0.92609  0.37730 -0.00000
    1236      0.27224E+07       -0.26763  0.96352  0.00000
             -0.10991E+06        0.00000 -0.00000  1.00000
             -0.17111E+08        0.96352  0.26763 -0.00000
    1237      0.31052E+07       -0.13734  0.99052  0.00000
               35142.            0.00000 -0.00000  1.00000
             -0.19493E+08        0.99052  0.13734 -0.00000
    1238      0.30192E+07        0.00000  1.00000  0.00000
              0.43611E+06        0.00000  0.00000  1.00000
             -0.20623E+08        1.00000  0.00000  0.00000
    1239      0.31052E+07        0.13734  0.99052  0.00000
               35142.           -0.00000 -0.00000  1.00000
             -0.19493E+08        0.99052 -0.13734 -0.00000
    1240      0.27224E+07        0.26763  0.96352  0.00000
             -0.10991E+06        0.00000 -0.00000  1.00000
             -0.17111E+08        0.96352 -0.26763 -0.00000
    1241      0.19738E+07        0.37730  0.92609  0.00000
              -73.874            0.00000 -0.00000  1.00000
             -0.14112E+08        0.92609 -0.37730 -0.00000

          ***** POST1 NODAL STRESS PRINCIPAL DIRECTIONS *****

  LOAD STEP     1  SUBSTEP=     1
  TIME=    1.0000         LOAD CASE=  0

  NODE      PRINCIPAL STRESS     DIRECTION VECTOR (X,Y,Z)
             (S1,S2,S3)
    1242      0.14127E+07        0.46408  0.88579  0.00000
             -0.11679E+06       -0.00000 -0.00000  1.00000
             -0.10881E+08        0.88579 -0.46408 -0.00000
    1243      0.82335E+06        0.51868  0.85497  0.00000
              -38552.           -0.00000 -0.00000  1.00000
             -0.80599E+07        0.85497 -0.51868 -0.00000
    1244      0.44111E+06        0.54613  0.83770 -0.00000
              -25366.            0.00000  0.00000  1.00000
             -0.56963E+07        0.83770 -0.54613 -0.00000
    1245      0.23071E+06        0.55296  0.83321 -0.00000
              -10467.            0.00000  0.00000  1.00000
             -0.37547E+07        0.83321 -0.55296 -0.00000
    1246      0.16071E+06        0.56150  0.82748 -0.00000
               28653.            0.00000  0.00000  1.00000
             -0.21480E+07        0.82748 -0.56150 -0.00000
    1247      0.34733E+06        0.71757  0.69649  0.00000
              -26983.            0.00000 -0.00000  1.00000
             -0.62097E+06       -0.69649  0.71757  0.00000
    1248      0.35028E+06        0.93426 -0.35659 -0.00000
              -21775.            0.00000 -0.00000  1.00000
             -0.27027E+06        0.35659  0.93426  0.00000
    1249       41406.            0.00000 -0.00000  1.00000
             -0.13381E+06       -0.67290  0.73973  0.00000
             -0.13722E+07        0.73973  0.67290  0.00000
    1250      -3299.4            0.00000 -0.00000  1.00000
             -0.14937E+06       -0.65264  0.75767  0.00000
             -0.27939E+07        0.75767  0.65264  0.00000
    1251       24804.            0.00000 -0.00000  1.00000
              -22316.           -0.64978  0.76013  0.00000
             -0.46949E+07        0.76013  0.64978  0.00000
    1252      0.39179E+06       -0.62800  0.77821  0.00000
              -74174.            0.00000 -0.00000  1.00000
             -0.71825E+07        0.77821  0.62800  0.00000
    1253      0.83733E+06       -0.57384  0.81897  0.00000
               13045.            0.00000 -0.00000  1.00000
             -0.10579E+08        0.81897  0.57384  0.00000
    1254      0.18133E+07       -0.48022  0.87715  0.00000
             -0.34308E+06        0.00000 -0.00000  1.00000
             -0.14708E+08        0.87715  0.48022 -0.00000
    1255      0.21719E+07       -0.33739  0.94137  0.00000
              0.25296E+06        0.00000  0.00000  1.00000
             -0.19655E+08        0.94137  0.33739 -0.00000
    1256      0.29722E+07       -0.17605  0.98438  0.00000
              0.25328E+06        0.00000 -0.00000  1.00000
             -0.23432E+08        0.98438  0.17605 -0.00000
    1257      0.38012E+07        0.00000  1.00000  0.00000
             -0.42292E+06        0.00000  0.00000  1.00000
             -0.24439E+08        1.00000  0.00000  0.00000
    1258      0.29722E+07        0.17605  0.98438  0.00000
              0.25328E+06       -0.00000 -0.00000  1.00000
             -0.23432E+08        0.98438 -0.17605 -0.00000

          ***** POST1 NODAL STRESS PRINCIPAL DIRECTIONS *****

  LOAD STEP     1  SUBSTEP=     1
  TIME=    1.0000         LOAD CASE=  0

  NODE      PRINCIPAL STRESS     DIRECTION VECTOR (X,Y,Z)
             (S1,S2,S3)
    1259      0.21719E+07        0.33739  0.94137  0.00000
              0.25296E+06       -0.00000 -0.00000  1.00000
             -0.19655E+08        0.94137 -0.33739 -0.00000
    1260      0.18133E+07        0.48022  0.87715  0.00000
             -0.34308E+06       -0.00000 -0.00000  1.00000
             -0.14708E+08        0.87715 -0.48022 -0.00000
    1261      0.83733E+06        0.57384  0.81897  0.00000
               13045.           -0.00000 -0.00000  1.00000
             -0.10579E+08        0.81897 -0.57384  0.00000
    1262      0.39179E+06        0.62800  0.77821  0.00000
              -74174.           -0.00000 -0.00000  1.00000
             -0.71825E+07        0.77821 -0.62800  0.00000
    1263       24804.           -0.00000 -0.00000  1.00000
              -22316.            0.64978  0.76013  0.00000
             -0.46949E+07        0.76013 -0.64978 -0.00000
    1264      -3299.4           -0.00000 -0.00000  1.00000
             -0.14937E+06        0.65264  0.75767  0.00000
             -0.27939E+07        0.75767 -0.65264 -0.00000
    1265       41406.           -0.00000 -0.00000  1.00000
             -0.13381E+06        0.67290  0.73973  0.00000
             -0.13722E+07        0.73973 -0.67290 -0.00000
    1266      0.35028E+06        0.93426  0.35659  0.00000
              -21775.           -0.00000 -0.00000  1.00000
             -0.27027E+06       -0.35659  0.93426  0.00000
    1267      0.42997E+06        0.99195  0.12664 -0.00000
              -2455.6            0.00000 -0.00000  1.00000
             -0.19102E+06       -0.12664  0.99195  0.00000
    1268       23025.            0.00000 -0.00000  1.00000
             -0.28993E+06        0.93754 -0.34788 -0.00000
             -0.66282E+06        0.34788  0.93754  0.00000
    1269       38310.           -0.00000 -0.00000  1.00000
             -0.43216E+06        0.79434 -0.60748  0.00000
             -0.17374E+07        0.60748  0.79434  0.00000
    1270      -37323.           -0.00000  0.00000  1.00000
             -0.25363E+06        0.76873 -0.63957  0.00000
             -0.33428E+07        0.63957  0.76873  0.00000
    1271      0.12296E+06       -0.00000  0.00000  1.00000
             -0.10168E+06        0.75036 -0.66103  0.00000
             -0.58002E+07        0.66103  0.75036 -0.00000
    1272      0.70828E+06        0.70803 -0.70618 -0.00000
             -0.33605E+06        0.00000 -0.00000  1.00000
             -0.92564E+07        0.70618  0.70803  0.00000
    1273      0.74294E+06       -0.62006  0.78455  0.00000
              0.23930E+06        0.00000 -0.00000  1.00000
             -0.14837E+08        0.78455  0.62006 -0.00000
    1274      0.28226E+07       -0.45532  0.89033  0.00000
             -0.12027E+07        0.00000 -0.00000  1.00000
             -0.21536E+08        0.89033  0.45532 -0.00000
    1275      0.28154E+07       -0.22546  0.97425  0.00000
              0.18894E+06        0.00000  0.00000  1.00000
             -0.29171E+08        0.97425  0.22546 -0.00000

          ***** POST1 NODAL STRESS PRINCIPAL DIRECTIONS *****

  LOAD STEP     1  SUBSTEP=     1
  TIME=    1.0000         LOAD CASE=  0

  NODE      PRINCIPAL STRESS     DIRECTION VECTOR (X,Y,Z)
             (S1,S2,S3)
    1276      0.20060E+07        0.00000  1.00000  0.00000
              0.19294E+07        0.00000  0.00000  1.00000
             -0.33474E+08        1.00000  0.00000  0.00000
    1277      0.28154E+07        0.22546  0.97425  0.00000
              0.18894E+06       -0.00000 -0.00000  1.00000
             -0.29171E+08        0.97425 -0.22546 -0.00000
    1278      0.28226E+07        0.45532  0.89033  0.00000
             -0.12027E+07       -0.00000 -0.00000  1.00000
             -0.21536E+08        0.89033 -0.45532  0.00000
    1279      0.74294E+06        0.62006  0.78455 -0.00000
              0.23930E+06        0.00000  0.00000  1.00000
             -0.14837E+08        0.78455 -0.62006  0.00000
    1280      0.70828E+06        0.70803  0.70618 -0.00000
             -0.33605E+06        0.00000  0.00000  1.00000
             -0.92564E+07       -0.70618  0.70803 -0.00000
    1281      0.12296E+06       -0.00000 -0.00000  1.00000
             -0.10168E+06        0.75036  0.66103  0.00000
             -0.58002E+07       -0.66103  0.75036 -0.00000
    1282      -37323.           -0.00000 -0.00000  1.00000
             -0.25363E+06        0.76873  0.63957  0.00000
             -0.33428E+07       -0.63957  0.76873 -0.00000
    1283       38310.           -0.00000 -0.00000  1.00000
             -0.43216E+06        0.79434  0.60748  0.00000
             -0.17374E+07       -0.60748  0.79434  0.00000
    1284       23025.           -0.00000 -0.00000  1.00000
             -0.28993E+06        0.93754  0.34788  0.00000
             -0.66282E+06       -0.34788  0.93754  0.00000
    1285      0.42997E+06        0.99195 -0.12664  0.00000
              -2455.6           -0.00000 -0.00000  1.00000
             -0.19102E+06        0.12664  0.99195  0.00000
    1286      0.49531E+06        0.90227  0.43117 -0.00000
              -17672.            0.00000 -0.00000  1.00000
             -0.17610E+06       -0.43117  0.90227  0.00000
    1287       85092.            0.83231  0.55431 -0.00000
               58438.            0.00000 -0.00000  1.00000
             -0.49188E+06       -0.55431  0.83231  0.00000
    1288      -5693.0            0.00000 -0.00000  1.00000
             -0.34257E+06        0.99349 -0.11391 -0.00000
             -0.68899E+06        0.11391  0.99349  0.00000
    1289      0.18403E+06        0.00000 -0.00000  1.00000
             -0.44141E+06        0.89017 -0.45563 -0.00000
             -0.18626E+07        0.45563  0.89017  0.00000
    1290       40379.            0.84574 -0.53359 -0.00000
             -0.12124E+06        0.00000 -0.00000  1.00000
             -0.35755E+07        0.53359  0.84574  0.00000
    1291      0.68552E+06        0.00000 -0.00000  1.00000
             -0.28757E+06        0.84010 -0.54244 -0.00000
             -0.71788E+07        0.54244  0.84010  0.00000
    1292      0.16649E+07        0.78598 -0.61825 -0.00000
             -0.10056E+07        0.00000 -0.00000  1.00000
             -0.12364E+08        0.61825  0.78598  0.00000

          ***** POST1 NODAL STRESS PRINCIPAL DIRECTIONS *****

  LOAD STEP     1  SUBSTEP=     1
  TIME=    1.0000         LOAD CASE=  0

  NODE      PRINCIPAL STRESS     DIRECTION VECTOR (X,Y,Z)
             (S1,S2,S3)
    1293      0.13687E+07       -0.00000  0.00000  1.00000
             -0.12361E+07       -0.66331  0.74835 -0.00000
             -0.23585E+08        0.74835  0.66331  0.00000
    1294      0.30828E+07       -0.32762  0.94481  0.00000
             -0.82823E+06        0.00000 -0.00000  1.00000
             -0.38924E+08        0.94481  0.32762 -0.00000
    1295      0.51071E+07        0.00000  1.00000  0.00000
             -0.87121E+06        0.00000  0.00000  1.00000
             -0.44986E+08        1.00000  0.00000  0.00000
    1296      0.30828E+07        0.32762  0.94481 -0.00000
             -0.82823E+06        0.00000 -0.00000  1.00000
             -0.38924E+08        0.94481 -0.32762 -0.00000
    1297      0.13687E+07       -0.00000 -0.00000  1.00000
             -0.12361E+07        0.66331  0.74835  0.00000
             -0.23585E+08        0.74835 -0.66331  0.00000
    1298      0.16649E+07        0.78598  0.61825 -0.00000
             -0.10056E+07        0.00000  0.00000  1.00000
             -0.12364E+08       -0.61825  0.78598 -0.00000
    1299      0.68552E+06       -0.00000 -0.00000  1.00000
             -0.28757E+06        0.84010  0.54244  0.00000
             -0.71788E+07       -0.54244  0.84010 -0.00000
    1300       40379.            0.84574  0.53359 -0.00000
             -0.12124E+06        0.00000  0.00000  1.00000
             -0.35755E+07       -0.53359  0.84574 -0.00000
    1301      0.18403E+06       -0.00000 -0.00000  1.00000
             -0.44141E+06        0.89017  0.45563  0.00000
             -0.18626E+07       -0.45563  0.89017  0.00000
    1302      -5693.0           -0.00000 -0.00000  1.00000
             -0.34257E+06        0.99349  0.11391  0.00000
             -0.68899E+06       -0.11391  0.99349  0.00000
    1303       85092.            0.83231 -0.55431 -0.00000
               58438.            0.00000 -0.00000  1.00000
             -0.49188E+06        0.55431  0.83231  0.00000
    1304      0.49531E+06        0.90227 -0.43117  0.00000
              -17672.           -0.00000 -0.00000  1.00000
             -0.17610E+06        0.43117  0.90227  0.00000
    1305      0.39898E+06        0.72695  0.68669  0.00000
               1669.9            0.00000 -0.00000  1.00000
              -85412.           -0.68669  0.72695  0.00000
    1306      0.54598E+06        0.52070  0.85374  0.00000
              -18302.            0.00000 -0.00000  1.00000
             -0.16084E+06        0.85374 -0.52070 -0.00000
    1307      0.46363E+06        0.38600  0.92250  0.00000
               3303.2            0.00000 -0.00000  1.00000
             -0.17248E+06        0.92250 -0.38600 -0.00000
    1308      0.37377E+06       -0.09213  0.99575  0.00000
              -57327.            0.99575  0.09213  0.00000
              -76454.           -0.00000 -0.00000  1.00000
    1309       80795.           -0.00000  0.00000  1.00000
               59433.            0.79584 -0.60550  0.00000
             -0.84383E+06        0.60550  0.79584 -0.00000

          ***** POST1 NODAL STRESS PRINCIPAL DIRECTIONS *****

  LOAD STEP     1  SUBSTEP=     1
  TIME=    1.0000         LOAD CASE=  0

  NODE      PRINCIPAL STRESS     DIRECTION VECTOR (X,Y,Z)
             (S1,S2,S3)
    1310      0.85788E+06        0.82929 -0.55883 -0.00000
             -0.33238E+06        0.00000  0.00000  1.00000
             -0.20971E+07        0.55883  0.82929 -0.00000
    1311      0.90379E+06       -0.00000  0.00000  1.00000
              -95613.            0.90508 -0.42524  0.00000
             -0.72575E+07        0.42524  0.90508 -0.00000
    1312      0.54664E+07        0.86071 -0.50909  0.00000
             -0.22771E+07       -0.00000  0.00000  1.00000
             -0.16076E+08        0.50909  0.86071  0.00000
    1313     -0.24154E+07       -0.00000  0.00000  1.00000
             -0.11020E+08       -0.69726  0.71681 -0.00000
             -0.38373E+08        0.71681  0.69726  0.00000
    1314      0.87757E+07        0.00000  0.00000  1.00000
              0.51293E+07        0.00000  1.00000  0.00000
             -0.10324E+09        1.00000  0.00000  0.00000
    1315     -0.24154E+07       -0.00000 -0.00000  1.00000
             -0.11020E+08        0.69726  0.71681  0.00000
             -0.38373E+08        0.71681 -0.69726  0.00000
    1316      0.54664E+07        0.86071  0.50909  0.00000
             -0.22771E+07       -0.00000  0.00000  1.00000
             -0.16076E+08       -0.50909  0.86071 -0.00000
    1317      0.90379E+06       -0.00000 -0.00000  1.00000
              -95613.            0.90508  0.42524  0.00000
             -0.72575E+07       -0.42524  0.90508 -0.00000
    1318      0.85788E+06        0.82929  0.55883  0.00000
             -0.33238E+06       -0.00000  0.00000  1.00000
             -0.20971E+07       -0.55883  0.82929 -0.00000
    1319       80795.           -0.00000 -0.00000  1.00000
               59433.            0.79584  0.60550  0.00000
             -0.84383E+06       -0.60550  0.79584 -0.00000
    1320      0.37377E+06        0.09213  0.99575  0.00000
              -57327.            0.99575 -0.09213 -0.00000
              -76454.            0.00000 -0.00000  1.00000
    1321      0.46363E+06       -0.38600  0.92250  0.00000
               3303.2           -0.00000 -0.00000  1.00000
             -0.17248E+06        0.92250  0.38600  0.00000
    1322      0.54598E+06       -0.52070  0.85374  0.00000
              -18302.           -0.00000 -0.00000  1.00000
             -0.16084E+06        0.85374  0.52070  0.00000
    1323      0.39898E+06        0.72695 -0.68669 -0.00000
               1669.9           -0.00000 -0.00000  1.00000
              -85412.            0.68669  0.72695  0.00000

